@RELATION train_kademe5

@ATTRIBUTE il {Bartin,Bayburt,Cankiri,Erzurum,Hatay,Kahramanmaras,Nigde,Osmaniye,Tokat,Tunceli,Yozgat,bilinmiyor}
@ATTRIBUTE ilce {Afsin,Altinozu,Altunhisar,Amasra,Antakya,Arsuz,Askale,Atkaracalar,Aziziye,Belen,Bogazliyan,Bor,Camardi,Candir,Cerkes,Ciftlik,Defne,Dortyol,Dulkadiroglu,Duzici,Elbistan,Erbaa,Erzin,Goksun,Hasanbeyli,Hassa,Horasan,Iskenderun,Kadirli,Kirikhan,Mazgirt,Merkez,Niksar,Onikisubat,Palandoken,Pasinler,Payas,Pazar,Pazarcik,Reyhanli,Sabanozu,Samandag,Sarikaya,Sorgun,Sumbas,Toprakkale,Tortum,Turhal,Ulukisla,Yakutiye,Yayladagi,Yerkoy,Zile,bilinmiyor}
@ATTRIBUTE emlak_tipi {Satilik,bilinmiyor}
@ATTRIBUTE bina_yasi_raw {0,11_15_arasi,16_20_arasi,1_5_arasi,21_25_arasi,26_30_arasi,31_ve_uzeri,6_10_arasi,bilinmiyor}
@ATTRIBUTE bulundugu_kat_raw {1,10,11,12,13,14,17,2,21_ve_uzeri,3,4,5,6,7,8,9,Ara_Kat,Bahce,Bodrum,Cati,En_Ust_Kat,Giris,Kot_1,Kot_2,Kot_3,Teras_Kati,Tripleks,Villa_Kati,Yuksek_Giris,Zemin,bilinmiyor}
@ATTRIBUTE isitma_ana_sinif {Dogalgaz_Sobasi,Gunes_Enerjisi,Kat_Kaloriferi,Klima,Kombi,Kombi_Dogalgaz,Kombi_Elektrik,Merkezi,Soba,Yerden_Isitma,belirtilmemis_dogalgaz,belirtilmemis_elektrik,belirtilmemis_komur_odun,bilinmiyor,isi_pompasi,isi_pompasi_elektrik,isitma_yok,isitma_yok_dogalgaz,isitma_yok_elektrik}
@ATTRIBUTE mutfak_raw {Misafir_WC,bilinmiyor}
@ATTRIBUTE mutfak_acik_mi {yok,var}
@ATTRIBUTE balkon {yok,var}
@ATTRIBUTE asansor {yok,var}
@ATTRIBUTE otopark {yok,var}
@ATTRIBUTE esyali {yok,var}
@ATTRIBUTE Bati {yok,var}
@ATTRIBUTE Dogu {yok,var}
@ATTRIBUTE Guney {yok,var}
@ATTRIBUTE Kuzey {yok,var}
@ATTRIBUTE Akilli_Ev {yok,var}
@ATTRIBUTE Celik_Kapi {yok,var}
@ATTRIBUTE Ebeveyn_Banyosu {yok,var}
@ATTRIBUTE Fiber_Internet {yok,var}
@ATTRIBUTE Isicam {yok,var}
@ATTRIBUTE Somine {yok,var}
@ATTRIBUTE Isi_Yalitimi {yok,var}
@ATTRIBUTE Mustakil_Havuzlu {yok,var}
@ATTRIBUTE Ses_Yalitimi {yok,var}
@ATTRIBUTE Yuzme_Havuzu_Acik {yok,var}
@ATTRIBUTE Yuzme_Havuzu_Kapali {yok,var}
@ATTRIBUTE Bogaz {yok,var}
@ATTRIBUTE Deniz {yok,var}
@ATTRIBUTE Doga {yok,var}
@ATTRIBUTE Gol {yok,var}
@ATTRIBUTE Nehir {yok,var}
@ATTRIBUTE Sehir {yok,var}
@ATTRIBUTE Dubleks {yok,var}
@ATTRIBUTE Bahce_Dubleksi {yok,var}
@ATTRIBUTE Cati_Dubleksi {yok,var}
@ATTRIBUTE Tripleks {yok,var}
@ATTRIBUTE sege_kademe {bilinmiyor,kademe_5}
@ATTRIBUTE salon_kalitesi {bilinmiyor,iyi,kotu,normal}
@ATTRIBUTE mutfak_kalitesi {bilinmiyor,iyi,kotu,normal}
@ATTRIBUTE banyo_kalitesi {bilinmiyor,iyi,kotu,normal}
@ATTRIBUTE metrekare_kategori {0_50_m2,100_125_m2,125_150_m2,150_200_m2,200_300_m2,300_m2_ve_ustu,50_75_m2,75_100_m2,bilinmiyor}
@ATTRIBUTE oda_kategori {1_oda,2_oda,3_oda,4_oda,5_oda,6_oda,7_oda_ve_ustu,bilinmiyor}
@ATTRIBUTE kat_sayisi_kategori {alcak_1_3_kat,bilinmiyor,cok_yuksek_16_ustu_kat,orta_4_7_kat,yuksek_8_15_kat}
@ATTRIBUTE banyo_kategori {1_banyo,2_banyo,3_banyo_ve_ustu,bilinmiyor}
@ATTRIBUTE guvenlik_kategori {bilinmiyor,dusuk,orta,yok}
@ATTRIBUTE luks_kategori {bilinmiyor,dusuk,orta,yok}
@ATTRIBUTE sosyal_kategori {bilinmiyor,dusuk,orta,yok}
@ATTRIBUTE ulasim_kategori {bilinmiyor,dusuk,orta,yok}
@ATTRIBUTE cevre_yakinlik_kategori {bilinmiyor,dusuk,orta,yok,yuksek}
@ATTRIBUTE ic_konfor_kategori {bilinmiyor,dusuk,orta,yok,yuksek}
@ATTRIBUTE engelli_kategori {bilinmiyor,dusuk,orta,yok}
@ATTRIBUTE fiyat_kategorisi {10_Milyon_TL_Ustu,1_5_2_Milyon_TL_Arasi,1_5_Milyon_TL_Alti,2_3_Milyon_TL_Arasi,3_4_Milyon_TL_Arasi,4_5_Milyon_TL_Arasi,5_7_Bucuk_Milyon_TL_Arasi,7_Bucuk_10_Milyon_TL_Arasi}

@DATA
Tokat,Merkez,Satilik,16_20_arasi,2,Kombi_Dogalgaz,bilinmiyor,yok,yok,yok,yok,yok,var,var,yok,yok,yok,yok,yok,yok,yok,yok,yok,yok,yok,yok,yok,yok,yok,yok,yok,yok,yok,yok,yok,yok,yok,kademe_5,kotu,kotu,bilinmiyor,75_100_m2,3_oda,yuksek_8_15_kat,1_banyo,yok,yok,yok,dusuk,yok,yok,yok,2_3_Milyon_TL_Arasi
Hatay,Arsuz,Satilik,0,1,isitma_yok,bilinmiyor,yok,var,yok,yok,yok,yok,yok,yok,yok,yok,yok,yok,yok,yok,yok,yok,yok,yok,yok,yok,yok,yok,yok,yok,yok,yok,yok,yok,yok,yok,kademe_5,iyi,bilinmiyor,kotu,75_100_m2,3_oda,orta_4_7_kat,1_banyo,yok,yok,yok,dusuk,yok,yok,yok,3_4_Milyon_TL_Arasi
Hatay,Payas,Satilik,1_5_arasi,Bahce,Kombi,bilinmiyor,yok,var,var,var,yok,yok,yok,var,var,yok,var,var,yok,var,yok,yok,yok,yok,yok,yok,yok,yok,yok,yok,yok,yok,yok,yok,yok,yok,kademe_5,iyi,normal,bilinmiyor,125_150_m2,4_oda,orta_4_7_kat,2_banyo,dusuk,dusuk,dusuk,dusuk,orta,yuksek,yok,2_3_Milyon_TL_Arasi
Hatay,Iskenderun,Satilik,16_20_arasi,4,isitma_yok,bilinmiyor,yok,var,var,var,yok,var,yok,var,var,yok,yok,yok,yok,yok,yok,yok,yok,yok,yok,yok,yok,yok,yok,yok,yok,yok,yok,yok,yok,yok,kademe_5,kotu,kotu,bilinmiyor,75_100_m2,3_oda,orta_4_7_kat,1_banyo,yok,yok,yok,dusuk,yok,yok,yok,2_3_Milyon_TL_Arasi
Cankiri,Cerkes,Satilik,11_15_arasi,2,Kombi,bilinmiyor,yok,var,yok,var,yok,yok,yok,yok,yok,yok,yok,yok,yok,yok,yok,yok,yok,yok,yok,yok,yok,yok,yok,yok,yok,yok,yok,yok,yok,yok,kademe_5,normal,kotu,bilinmiyor,125_150_m2,4_oda,orta_4_7_kat,1_banyo,yok,yok,yok,dusuk,yok,yok,yok,3_4_Milyon_TL_Arasi
Hatay,Iskenderun,Satilik,6_10_arasi,En_Ust_Kat,isitma_yok_elektrik,bilinmiyor,yok,yok,var,yok,yok,yok,var,var,var,yok,var,yok,yok,yok,yok,yok,yok,yok,yok,yok,yok,yok,yok,yok,yok,var,yok,yok,yok,yok,kademe_5,bilinmiyor,iyi,bilinmiyor,75_100_m2,3_oda,orta_4_7_kat,1_banyo,yok,yok,yok,dusuk,dusuk,dusuk,yok,3_4_Milyon_TL_Arasi
Yozgat,Merkez,Satilik,1_5_arasi,5,Kombi,bilinmiyor,yok,yok,var,var,var,yok,yok,var,var,yok,var,yok,yok,yok,yok,yok,yok,yok,yok,yok,yok,yok,var,yok,yok,var,yok,yok,yok,yok,kademe_5,normal,normal,bilinmiyor,50_75_m2,3_oda,orta_4_7_kat,1_banyo,yok,yok,dusuk,dusuk,yuksek,yuksek,yok,2_3_Milyon_TL_Arasi
Erzurum,Yakutiye,Satilik,1_5_arasi,2,Merkezi,bilinmiyor,yok,var,var,var,yok,yok,var,var,yok,yok,var,var,yok,yok,yok,yok,yok,yok,yok,yok,yok,yok,yok,yok,yok,yok,yok,yok,yok,yok,kademe_5,bilinmiyor,bilinmiyor,kotu,150_200_m2,4_oda,yuksek_8_15_kat,2_banyo,yok,yok,yok,dusuk,yok,orta,yok,3_4_Milyon_TL_Arasi
Kahramanmaras,Onikisubat,Satilik,0,6,Kombi,bilinmiyor,yok,var,yok,var,yok,yok,var,var,var,yok,yok,yok,yok,yok,yok,yok,yok,yok,yok,yok,yok,yok,yok,yok,yok,yok,yok,yok,yok,yok,kademe_5,kotu,bilinmiyor,bilinmiyor,150_200_m2,5_oda,yuksek_8_15_kat,1_banyo,yok,yok,yok,dusuk,yok,yok,yok,5_7_Bucuk_Milyon_TL_Arasi
Hatay,Antakya,Satilik,0,4,Merkezi,bilinmiyor,yok,var,var,var,yok,var,yok,yok,var,yok,var,yok,yok,yok,yok,yok,yok,yok,yok,yok,yok,yok,var,yok,yok,var,yok,yok,yok,yok,kademe_5,kotu,bilinmiyor,bilinmiyor,125_150_m2,4_oda,orta_4_7_kat,1_banyo,dusuk,dusuk,dusuk,orta,orta,yuksek,yok,2_3_Milyon_TL_Arasi
Tokat,Niksar,Satilik,26_30_arasi,Giris,Kombi_Dogalgaz,bilinmiyor,yok,yok,yok,yok,yok,var,var,var,var,yok,yok,yok,yok,yok,yok,yok,yok,yok,yok,yok,yok,yok,yok,yok,yok,yok,yok,yok,yok,yok,kademe_5,iyi,normal,kotu,100_125_m2,3_oda,orta_4_7_kat,1_banyo,yok,yok,yok,dusuk,yok,yok,yok,1_5_2_Milyon_TL_Arasi
Tokat,Merkez,Satilik,0,Bahce,Kombi,bilinmiyor,yok,var,yok,var,yok,yok,var,var,var,yok,var,var,yok,var,yok,yok,yok,yok,yok,yok,yok,yok,var,yok,yok,var,yok,yok,yok,var,kademe_5,bilinmiyor,bilinmiyor,bilinmiyor,200_300_m2,5_oda,alcak_1_3_kat,2_banyo,yok,yok,yok,dusuk,dusuk,yuksek,yok,10_Milyon_TL_Ustu
Hatay,Iskenderun,Satilik,6_10_arasi,1,Kombi_Dogalgaz,bilinmiyor,yok,var,var,var,yok,var,var,var,yok,yok,var,yok,yok,var,yok,yok,yok,var,yok,yok,yok,yok,yok,yok,yok,yok,yok,yok,yok,yok,kademe_5,normal,normal,bilinmiyor,125_150_m2,4_oda,orta_4_7_kat,1_banyo,yok,yok,yok,dusuk,orta,yuksek,yok,3_4_Milyon_TL_Arasi
Hatay,Iskenderun,Satilik,11_15_arasi,Tripleks,Klima,bilinmiyor,yok,var,yok,yok,yok,var,var,var,var,yok,var,var,yok,yok,yok,yok,yok,yok,yok,yok,yok,yok,yok,yok,yok,var,yok,yok,yok,var,kademe_5,bilinmiyor,normal,bilinmiyor,200_300_m2,6_oda,orta_4_7_kat,3_banyo_ve_ustu,yok,dusuk,dusuk,dusuk,dusuk,yuksek,yok,10_Milyon_TL_Ustu
Hatay,Iskenderun,Satilik,6_10_arasi,4,Klima,bilinmiyor,yok,var,var,yok,yok,yok,yok,yok,yok,yok,var,yok,yok,var,yok,yok,yok,yok,yok,yok,yok,var,yok,yok,yok,var,var,yok,yok,yok,kademe_5,normal,normal,bilinmiyor,200_300_m2,5_oda,orta_4_7_kat,1_banyo,dusuk,dusuk,yok,orta,orta,yuksek,yok,4_5_Milyon_TL_Arasi
Tokat,Merkez,Satilik,1_5_arasi,bilinmiyor,Soba,bilinmiyor,yok,yok,yok,yok,yok,yok,yok,yok,yok,yok,yok,yok,yok,yok,yok,yok,yok,yok,yok,yok,yok,yok,yok,yok,yok,yok,yok,yok,yok,yok,kademe_5,kotu,bilinmiyor,bilinmiyor,150_200_m2,5_oda,alcak_1_3_kat,1_banyo,yok,yok,yok,dusuk,yok,yok,yok,2_3_Milyon_TL_Arasi
Tokat,Merkez,Satilik,16_20_arasi,2,Kombi,bilinmiyor,yok,var,var,var,yok,yok,yok,yok,yok,yok,yok,yok,yok,yok,yok,yok,yok,yok,yok,yok,yok,yok,var,yok,yok,var,yok,yok,yok,yok,kademe_5,kotu,bilinmiyor,bilinmiyor,75_100_m2,3_oda,yuksek_8_15_kat,1_banyo,yok,yok,yok,dusuk,yok,yok,yok,2_3_Milyon_TL_Arasi
Tokat,Merkez,Satilik,21_25_arasi,5,Kombi,bilinmiyor,yok,var,var,var,yok,yok,yok,var,var,yok,var,yok,yok,yok,yok,yok,yok,yok,yok,yok,yok,yok,yok,yok,yok,var,yok,yok,yok,yok,kademe_5,bilinmiyor,bilinmiyor,bilinmiyor,100_125_m2,3_oda,orta_4_7_kat,1_banyo,yok,yok,yok,dusuk,yuksek,dusuk,yok,2_3_Milyon_TL_Arasi
Tokat,Niksar,Satilik,1_5_arasi,4,Kombi_Dogalgaz,bilinmiyor,yok,var,var,var,yok,yok,yok,yok,yok,yok,var,yok,yok,var,yok,yok,yok,yok,yok,yok,yok,yok,yok,yok,yok,var,yok,yok,yok,yok,kademe_5,bilinmiyor,normal,bilinmiyor,125_150_m2,4_oda,orta_4_7_kat,2_banyo,yok,yok,yok,orta,dusuk,yuksek,yok,4_5_Milyon_TL_Arasi
Hatay,Arsuz,Satilik,0,Zemin,Kombi,bilinmiyor,yok,var,yok,var,yok,var,var,var,var,yok,yok,yok,yok,yok,yok,yok,yok,yok,yok,yok,yok,yok,yok,yok,yok,yok,yok,yok,yok,yok,kademe_5,kotu,bilinmiyor,bilinmiyor,75_100_m2,3_oda,orta_4_7_kat,1_banyo,yok,yok,yok,dusuk,yok,yok,yok,3_4_Milyon_TL_Arasi
Hatay,Payas,Satilik,1_5_arasi,1,Kombi,bilinmiyor,yok,var,var,var,yok,var,var,yok,var,yok,var,var,yok,yok,yok,yok,yok,yok,yok,yok,yok,yok,yok,yok,yok,var,yok,yok,yok,yok,kademe_5,normal,normal,bilinmiyor,150_200_m2,4_oda,orta_4_7_kat,2_banyo,dusuk,dusuk,dusuk,orta,yuksek,yuksek,yok,3_4_Milyon_TL_Arasi
Kahramanmaras,Dulkadiroglu,Satilik,21_25_arasi,Bahce,Dogalgaz_Sobasi,bilinmiyor,yok,yok,yok,yok,yok,var,yok,var,var,yok,yok,yok,yok,yok,yok,yok,yok,yok,yok,yok,yok,yok,yok,yok,yok,yok,yok,yok,yok,yok,kademe_5,normal,bilinmiyor,normal,150_200_m2,3_oda,bilinmiyor,1_banyo,yok,yok,yok,dusuk,yok,yok,yok,1_5_Milyon_TL_Alti
Hatay,Samandag,Satilik,31_ve_uzeri,3,Klima,bilinmiyor,yok,var,yok,var,yok,var,yok,yok,var,yok,var,yok,yok,var,yok,yok,yok,yok,yok,yok,yok,var,yok,yok,yok,yok,yok,yok,yok,yok,kademe_5,iyi,iyi,bilinmiyor,200_300_m2,4_oda,orta_4_7_kat,1_banyo,dusuk,orta,dusuk,dusuk,yok,yuksek,yok,4_5_Milyon_TL_Arasi
Tokat,Merkez,Satilik,1_5_arasi,3,Kombi,bilinmiyor,yok,var,yok,yok,var,var,yok,yok,var,yok,var,yok,yok,var,yok,yok,yok,yok,yok,yok,yok,yok,yok,yok,yok,var,yok,yok,yok,yok,kademe_5,normal,normal,iyi,50_75_m2,2_oda,orta_4_7_kat,1_banyo,yok,yok,dusuk,yok,orta,yuksek,yok,3_4_Milyon_TL_Arasi
Hatay,Belen,Satilik,26_30_arasi,1,Kombi,bilinmiyor,yok,var,yok,var,yok,yok,yok,yok,yok,yok,yok,yok,yok,yok,yok,yok,yok,yok,yok,yok,yok,yok,yok,yok,yok,var,yok,yok,yok,yok,kademe_5,normal,bilinmiyor,iyi,125_150_m2,4_oda,orta_4_7_kat,1_banyo,yok,yok,yok,dusuk,yok,yok,yok,1_5_2_Milyon_TL_Arasi
Hatay,Belen,Satilik,31_ve_uzeri,bilinmiyor,Kombi_Dogalgaz,bilinmiyor,yok,var,yok,var,yok,var,yok,yok,yok,yok,var,yok,yok,yok,yok,yok,yok,yok,yok,yok,yok,yok,yok,yok,yok,yok,yok,yok,yok,var,kademe_5,kotu,kotu,bilinmiyor,200_300_m2,6_oda,alcak_1_3_kat,1_banyo,dusuk,dusuk,yok,orta,dusuk,yuksek,yok,7_Bucuk_10_Milyon_TL_Arasi
Hatay,Arsuz,Satilik,6_10_arasi,2,Klima,bilinmiyor,yok,var,var,var,yok,yok,var,yok,yok,yok,var,var,yok,yok,yok,yok,yok,yok,yok,yok,yok,yok,yok,yok,yok,var,yok,yok,yok,yok,kademe_5,iyi,normal,bilinmiyor,150_200_m2,4_oda,orta_4_7_kat,2_banyo,yok,yok,yok,dusuk,dusuk,yuksek,yok,3_4_Milyon_TL_Arasi
Tokat,Merkez,Satilik,16_20_arasi,3,Kombi_Dogalgaz,bilinmiyor,yok,var,var,var,yok,var,var,var,yok,yok,var,yok,yok,var,yok,yok,yok,yok,yok,yok,yok,yok,var,yok,yok,var,var,yok,yok,yok,kademe_5,kotu,kotu,bilinmiyor,150_200_m2,4_oda,orta_4_7_kat,2_banyo,yok,dusuk,yok,dusuk,yok,yuksek,yok,4_5_Milyon_TL_Arasi
Hatay,Iskenderun,Satilik,6_10_arasi,10,Kombi,bilinmiyor,yok,var,var,var,yok,var,var,var,yok,yok,var,var,yok,yok,yok,yok,yok,yok,var,yok,yok,yok,yok,yok,yok,var,yok,yok,yok,yok,kademe_5,bilinmiyor,iyi,bilinmiyor,150_200_m2,4_oda,yuksek_8_15_kat,2_banyo,dusuk,dusuk,dusuk,orta,orta,yuksek,yok,3_4_Milyon_TL_Arasi
Hatay,Belen,Satilik,16_20_arasi,Bahce,isitma_yok,bilinmiyor,yok,var,yok,var,yok,yok,yok,yok,yok,yok,yok,yok,yok,yok,yok,yok,yok,yok,yok,yok,yok,yok,yok,yok,yok,yok,yok,yok,yok,yok,kademe_5,kotu,bilinmiyor,kotu,200_300_m2,6_oda,bilinmiyor,3_banyo_ve_ustu,yok,yok,yok,dusuk,yok,yok,yok,5_7_Bucuk_Milyon_TL_Arasi
Erzurum,Yakutiye,Satilik,16_20_arasi,2,Kombi,bilinmiyor,yok,var,var,var,yok,yok,yok,var,var,yok,yok,var,yok,yok,yok,yok,yok,yok,yok,yok,yok,yok,yok,yok,yok,var,yok,yok,yok,yok,kademe_5,normal,kotu,bilinmiyor,150_200_m2,4_oda,orta_4_7_kat,2_banyo,yok,yok,yok,dusuk,yuksek,yuksek,yok,3_4_Milyon_TL_Arasi
Osmaniye,Kadirli,Satilik,11_15_arasi,1,Kombi,bilinmiyor,yok,yok,yok,yok,yok,yok,yok,yok,yok,yok,yok,yok,yok,yok,yok,yok,yok,yok,yok,yok,yok,yok,yok,yok,yok,yok,yok,yok,yok,yok,kademe_5,bilinmiyor,bilinmiyor,bilinmiyor,125_150_m2,4_oda,yuksek_8_15_kat,1_banyo,yok,yok,yok,dusuk,yok,yok,yok,3_4_Milyon_TL_Arasi
Erzurum,Yakutiye,Satilik,1_5_arasi,1,Merkezi,bilinmiyor,yok,var,yok,var,yok,yok,var,var,yok,yok,yok,yok,yok,yok,yok,yok,yok,yok,yok,yok,yok,yok,yok,yok,yok,yok,yok,yok,yok,yok,kademe_5,bilinmiyor,bilinmiyor,bilinmiyor,150_200_m2,4_oda,orta_4_7_kat,2_banyo,yok,yok,yok,dusuk,yok,yok,yok,3_4_Milyon_TL_Arasi
Tokat,Niksar,Satilik,1_5_arasi,Yuksek_Giris,Kombi_Dogalgaz,bilinmiyor,yok,var,var,var,yok,yok,yok,var,yok,yok,var,yok,yok,var,yok,yok,yok,yok,yok,yok,yok,yok,yok,yok,yok,var,yok,yok,yok,yok,kademe_5,normal,normal,bilinmiyor,125_150_m2,4_oda,orta_4_7_kat,2_banyo,orta,dusuk,yok,orta,orta,orta,yok,4_5_Milyon_TL_Arasi
Tokat,Merkez,Satilik,16_20_arasi,2,Kombi,bilinmiyor,yok,var,var,var,yok,yok,yok,yok,yok,yok,var,yok,yok,yok,yok,yok,yok,yok,yok,yok,yok,yok,yok,yok,yok,yok,yok,yok,yok,yok,kademe_5,normal,kotu,bilinmiyor,150_200_m2,5_oda,orta_4_7_kat,2_banyo,yok,yok,yok,dusuk,yok,yok,yok,5_7_Bucuk_Milyon_TL_Arasi
Hatay,Iskenderun,Satilik,0,En_Ust_Kat,Kombi_Dogalgaz,bilinmiyor,yok,var,var,var,yok,var,var,var,yok,yok,var,yok,yok,var,yok,yok,yok,yok,var,yok,yok,var,yok,yok,yok,var,var,yok,yok,yok,kademe_5,bilinmiyor,bilinmiyor,bilinmiyor,200_300_m2,5_oda,orta_4_7_kat,2_banyo,orta,dusuk,dusuk,orta,orta,yuksek,yok,10_Milyon_TL_Ustu
Kahramanmaras,Onikisubat,Satilik,0,1,Kombi,bilinmiyor,yok,var,yok,var,yok,yok,var,var,var,yok,yok,yok,yok,yok,yok,yok,yok,yok,yok,yok,yok,yok,yok,yok,yok,yok,yok,yok,yok,yok,kademe_5,iyi,iyi,bilinmiyor,100_125_m2,3_oda,orta_4_7_kat,2_banyo,yok,yok,yok,dusuk,yok,yok,yok,3_4_Milyon_TL_Arasi
Hatay,Payas,Satilik,6_10_arasi,1,Kombi,bilinmiyor,yok,var,yok,var,yok,var,yok,var,var,yok,var,var,yok,yok,yok,yok,yok,yok,yok,yok,yok,yok,yok,yok,yok,var,yok,yok,yok,yok,kademe_5,normal,normal,normal,150_200_m2,4_oda,orta_4_7_kat,2_banyo,yok,yok,yok,dusuk,orta,yuksek,yok,2_3_Milyon_TL_Arasi
Hatay,Iskenderun,Satilik,1_5_arasi,2,isitma_yok,bilinmiyor,yok,var,var,yok,yok,yok,yok,yok,yok,yok,yok,yok,yok,yok,yok,yok,yok,yok,yok,yok,yok,yok,yok,yok,yok,var,yok,yok,yok,yok,kademe_5,iyi,bilinmiyor,kotu,0_50_m2,2_oda,orta_4_7_kat,1_banyo,yok,yok,yok,dusuk,yok,yok,yok,1_5_2_Milyon_TL_Arasi
Tokat,Merkez,Satilik,1_5_arasi,3,Kombi,bilinmiyor,yok,var,var,var,yok,var,var,var,yok,yok,yok,yok,yok,yok,yok,yok,yok,yok,yok,yok,yok,yok,yok,yok,yok,yok,yok,yok,yok,yok,kademe_5,kotu,bilinmiyor,iyi,125_150_m2,4_oda,orta_4_7_kat,1_banyo,yok,yok,yok,dusuk,yok,yok,yok,4_5_Milyon_TL_Arasi
Tokat,Merkez,Satilik,0,4,Kombi_Dogalgaz,bilinmiyor,yok,var,var,var,yok,var,var,var,yok,yok,yok,yok,yok,yok,yok,yok,yok,yok,yok,yok,yok,yok,yok,yok,yok,yok,var,yok,yok,yok,kademe_5,bilinmiyor,bilinmiyor,bilinmiyor,100_125_m2,2_oda,orta_4_7_kat,2_banyo,dusuk,yok,yok,dusuk,dusuk,orta,yok,5_7_Bucuk_Milyon_TL_Arasi
Tokat,Merkez,Satilik,16_20_arasi,3,Kombi,bilinmiyor,yok,var,var,var,yok,var,yok,var,var,yok,var,yok,yok,var,yok,yok,yok,yok,yok,yok,yok,yok,yok,yok,yok,var,var,yok,yok,yok,kademe_5,normal,normal,kotu,200_300_m2,6_oda,orta_4_7_kat,2_banyo,yok,dusuk,dusuk,orta,yuksek,yuksek,yok,4_5_Milyon_TL_Arasi
Kahramanmaras,Onikisubat,Satilik,1_5_arasi,5,Merkezi,bilinmiyor,yok,var,yok,var,yok,var,yok,var,var,yok,var,var,yok,yok,yok,yok,yok,yok,yok,yok,yok,yok,var,yok,yok,var,yok,yok,yok,yok,kademe_5,iyi,normal,bilinmiyor,150_200_m2,5_oda,yuksek_8_15_kat,2_banyo,dusuk,dusuk,yok,dusuk,yuksek,yuksek,yok,5_7_Bucuk_Milyon_TL_Arasi
Hatay,Dortyol,Satilik,6_10_arasi,3,Kombi,bilinmiyor,yok,var,var,var,yok,yok,yok,var,var,yok,var,var,yok,yok,yok,yok,yok,yok,yok,yok,yok,yok,var,yok,yok,var,yok,yok,yok,yok,kademe_5,iyi,normal,bilinmiyor,150_200_m2,4_oda,orta_4_7_kat,2_banyo,yok,dusuk,dusuk,orta,yuksek,yuksek,yok,3_4_Milyon_TL_Arasi
Hatay,Defne,Satilik,16_20_arasi,1,Klima,bilinmiyor,yok,var,yok,var,var,var,var,var,var,yok,yok,yok,yok,yok,yok,yok,yok,yok,yok,yok,yok,yok,yok,yok,yok,yok,yok,yok,yok,yok,kademe_5,normal,bilinmiyor,bilinmiyor,300_m2_ve_ustu,4_oda,alcak_1_3_kat,2_banyo,yok,yok,yok,dusuk,yok,orta,yok,10_Milyon_TL_Ustu
Tokat,Merkez,Satilik,1_5_arasi,Ara_Kat,Yerden_Isitma,bilinmiyor,yok,var,var,var,yok,var,var,var,var,yok,var,var,yok,var,yok,yok,yok,yok,yok,yok,yok,yok,yok,yok,yok,var,yok,yok,yok,yok,kademe_5,normal,kotu,bilinmiyor,150_200_m2,5_oda,orta_4_7_kat,2_banyo,dusuk,yok,yok,dusuk,dusuk,yuksek,yok,7_Bucuk_10_Milyon_TL_Arasi
Hatay,Iskenderun,Satilik,16_20_arasi,4,Kombi_Dogalgaz,bilinmiyor,yok,var,yok,yok,yok,yok,yok,yok,yok,yok,yok,yok,yok,yok,yok,yok,yok,yok,yok,yok,yok,yok,yok,yok,yok,yok,yok,yok,yok,yok,kademe_5,bilinmiyor,normal,kotu,200_300_m2,5_oda,orta_4_7_kat,2_banyo,yok,yok,yok,dusuk,yok,yok,yok,2_3_Milyon_TL_Arasi
Hatay,Belen,Satilik,6_10_arasi,3,Kombi,bilinmiyor,yok,var,var,var,yok,yok,yok,yok,yok,yok,yok,yok,yok,yok,yok,yok,yok,yok,yok,yok,yok,yok,yok,yok,yok,yok,yok,yok,yok,yok,kademe_5,iyi,kotu,kotu,200_300_m2,4_oda,orta_4_7_kat,2_banyo,yok,yok,yok,dusuk,dusuk,dusuk,yok,5_7_Bucuk_Milyon_TL_Arasi
Yozgat,Merkez,Satilik,6_10_arasi,5,Merkezi,bilinmiyor,yok,var,var,var,yok,yok,yok,yok,yok,yok,var,var,yok,var,yok,yok,yok,yok,yok,yok,yok,yok,yok,yok,yok,var,yok,yok,yok,yok,kademe_5,iyi,normal,bilinmiyor,150_200_m2,4_oda,cok_yuksek_16_ustu_kat,2_banyo,dusuk,yok,yok,orta,orta,yuksek,yok,5_7_Bucuk_Milyon_TL_Arasi
Hatay,Belen,Satilik,6_10_arasi,En_Ust_Kat,Kombi_Dogalgaz,bilinmiyor,yok,var,var,var,yok,var,var,var,var,yok,var,var,yok,yok,yok,yok,yok,yok,yok,yok,yok,var,yok,yok,yok,yok,var,yok,yok,yok,kademe_5,kotu,kotu,bilinmiyor,200_300_m2,5_oda,orta_4_7_kat,3_banyo_ve_ustu,dusuk,dusuk,yok,dusuk,yok,orta,yok,7_Bucuk_10_Milyon_TL_Arasi
Yozgat,Merkez,Satilik,0,4,Kombi_Dogalgaz,bilinmiyor,yok,var,var,var,yok,yok,yok,yok,yok,yok,var,yok,yok,yok,yok,yok,yok,yok,yok,yok,yok,yok,yok,yok,yok,var,yok,yok,yok,yok,kademe_5,normal,normal,bilinmiyor,50_75_m2,3_oda,orta_4_7_kat,1_banyo,yok,yok,dusuk,dusuk,dusuk,yuksek,yok,2_3_Milyon_TL_Arasi
Hatay,Dortyol,Satilik,1_5_arasi,Bahce,Klima,bilinmiyor,yok,var,yok,yok,yok,var,var,var,var,yok,var,var,yok,yok,yok,yok,yok,yok,yok,yok,yok,yok,yok,yok,yok,yok,var,yok,yok,yok,kademe_5,iyi,normal,bilinmiyor,300_m2_ve_ustu,5_oda,bilinmiyor,2_banyo,yok,dusuk,dusuk,dusuk,yok,yuksek,yok,5_7_Bucuk_Milyon_TL_Arasi
Kahramanmaras,Onikisubat,Satilik,11_15_arasi,7,Merkezi,bilinmiyor,yok,var,yok,var,yok,var,yok,var,var,yok,yok,yok,yok,yok,yok,yok,yok,yok,yok,yok,yok,yok,yok,yok,yok,yok,yok,yok,yok,yok,kademe_5,iyi,normal,bilinmiyor,150_200_m2,5_oda,yuksek_8_15_kat,2_banyo,yok,yok,yok,dusuk,yok,yok,yok,4_5_Milyon_TL_Arasi
Yozgat,Merkez,Satilik,0,2,Kombi,bilinmiyor,yok,var,yok,yok,yok,yok,yok,yok,yok,yok,var,yok,yok,var,yok,yok,yok,yok,yok,yok,yok,yok,yok,yok,yok,var,yok,yok,yok,yok,kademe_5,normal,bilinmiyor,bilinmiyor,50_75_m2,3_oda,orta_4_7_kat,1_banyo,yok,yok,yok,dusuk,yok,orta,yok,1_5_Milyon_TL_Alti
Erzurum,Aziziye,Satilik,11_15_arasi,2,Merkezi,bilinmiyor,yok,var,var,var,yok,var,yok,yok,var,yok,var,var,yok,yok,yok,yok,yok,yok,yok,yok,yok,yok,yok,yok,yok,var,yok,yok,yok,yok,kademe_5,normal,bilinmiyor,bilinmiyor,100_125_m2,3_oda,orta_4_7_kat,2_banyo,yok,yok,dusuk,dusuk,orta,dusuk,yok,2_3_Milyon_TL_Arasi
Nigde,Merkez,Satilik,21_25_arasi,3,Merkezi,bilinmiyor,yok,var,var,yok,yok,yok,var,yok,var,yok,yok,yok,yok,yok,yok,yok,yok,yok,yok,yok,yok,yok,yok,yok,yok,yok,yok,yok,yok,yok,kademe_5,normal,normal,kotu,125_150_m2,4_oda,orta_4_7_kat,1_banyo,yok,yok,yok,dusuk,yok,yok,yok,3_4_Milyon_TL_Arasi
Hatay,Arsuz,Satilik,1_5_arasi,Bahce,isitma_yok,bilinmiyor,yok,var,yok,var,yok,yok,yok,yok,yok,yok,yok,yok,yok,yok,yok,yok,yok,yok,yok,yok,yok,yok,yok,yok,yok,yok,yok,yok,yok,var,kademe_5,bilinmiyor,bilinmiyor,bilinmiyor,300_m2_ve_ustu,6_oda,bilinmiyor,3_banyo_ve_ustu,yok,yok,yok,dusuk,yok,yok,yok,10_Milyon_TL_Ustu
Hatay,Dortyol,Satilik,11_15_arasi,1,Kombi,bilinmiyor,yok,var,var,var,yok,var,yok,var,var,yok,yok,var,yok,yok,yok,yok,yok,yok,yok,yok,yok,yok,yok,yok,yok,yok,yok,yok,yok,yok,kademe_5,kotu,bilinmiyor,kotu,150_200_m2,4_oda,orta_4_7_kat,2_banyo,yok,yok,yok,dusuk,yok,orta,yok,4_5_Milyon_TL_Arasi
Hatay,Dortyol,Satilik,0,Yuksek_Giris,Kombi_Dogalgaz,bilinmiyor,yok,yok,var,var,yok,yok,var,var,yok,yok,var,var,yok,var,yok,yok,yok,yok,yok,yok,yok,yok,var,yok,yok,var,yok,yok,yok,yok,kademe_5,bilinmiyor,bilinmiyor,bilinmiyor,75_100_m2,3_oda,orta_4_7_kat,2_banyo,dusuk,yok,yok,dusuk,orta,orta,yok,2_3_Milyon_TL_Arasi
Nigde,Merkez,Satilik,0,2,Kombi_Dogalgaz,bilinmiyor,yok,var,var,yok,yok,yok,var,yok,yok,yok,var,yok,yok,var,yok,yok,yok,yok,yok,yok,yok,yok,yok,yok,yok,var,yok,yok,yok,yok,kademe_5,iyi,normal,bilinmiyor,75_100_m2,3_oda,yuksek_8_15_kat,1_banyo,dusuk,dusuk,yok,orta,yok,yuksek,yok,5_7_Bucuk_Milyon_TL_Arasi
Nigde,Merkez,Satilik,31_ve_uzeri,En_Ust_Kat,Kombi_Dogalgaz,bilinmiyor,yok,var,var,yok,yok,var,var,yok,yok,yok,yok,yok,yok,yok,yok,yok,yok,yok,yok,yok,yok,yok,yok,yok,yok,yok,yok,yok,yok,yok,kademe_5,normal,kotu,bilinmiyor,125_150_m2,4_oda,orta_4_7_kat,1_banyo,yok,yok,yok,dusuk,yok,yok,yok,2_3_Milyon_TL_Arasi
Hatay,Defne,Satilik,16_20_arasi,2,Kombi_Dogalgaz,bilinmiyor,yok,var,yok,var,yok,yok,yok,yok,yok,yok,yok,yok,yok,yok,yok,yok,yok,yok,yok,yok,yok,yok,yok,yok,yok,yok,yok,yok,yok,yok,kademe_5,kotu,kotu,normal,150_200_m2,3_oda,orta_4_7_kat,1_banyo,yok,yok,yok,dusuk,yok,yok,yok,2_3_Milyon_TL_Arasi
Hatay,Antakya,Satilik,11_15_arasi,Giris,Kombi_Dogalgaz,bilinmiyor,yok,var,var,var,yok,var,var,yok,var,yok,var,yok,yok,var,yok,yok,yok,yok,yok,yok,yok,yok,var,yok,yok,var,yok,yok,yok,yok,kademe_5,normal,bilinmiyor,bilinmiyor,125_150_m2,4_oda,orta_4_7_kat,1_banyo,orta,dusuk,yok,orta,orta,yuksek,yok,2_3_Milyon_TL_Arasi
Hatay,Hassa,Satilik,1_5_arasi,1,Kombi_Dogalgaz,bilinmiyor,yok,var,var,var,yok,var,yok,yok,yok,yok,var,yok,yok,yok,yok,yok,yok,yok,yok,yok,yok,yok,yok,yok,yok,var,yok,yok,yok,yok,kademe_5,iyi,normal,bilinmiyor,150_200_m2,4_oda,orta_4_7_kat,2_banyo,dusuk,yok,yok,dusuk,yok,orta,yok,3_4_Milyon_TL_Arasi
Hatay,Arsuz,Satilik,0,bilinmiyor,Kombi_Dogalgaz,bilinmiyor,yok,var,yok,var,yok,var,var,var,var,yok,var,var,yok,yok,yok,yok,yok,yok,yok,yok,yok,yok,yok,yok,yok,yok,yok,yok,yok,var,kademe_5,bilinmiyor,bilinmiyor,bilinmiyor,300_m2_ve_ustu,5_oda,orta_4_7_kat,3_banyo_ve_ustu,yok,dusuk,yok,dusuk,yok,orta,yok,10_Milyon_TL_Ustu
Hatay,Iskenderun,Satilik,11_15_arasi,4,Gunes_Enerjisi,bilinmiyor,yok,var,var,yok,yok,yok,yok,yok,yok,yok,yok,yok,yok,yok,yok,yok,yok,yok,yok,yok,yok,yok,yok,yok,yok,yok,yok,yok,yok,yok,kademe_5,kotu,kotu,kotu,100_125_m2,4_oda,orta_4_7_kat,1_banyo,yok,yok,yok,dusuk,yok,yok,yok,2_3_Milyon_TL_Arasi
Osmaniye,Sumbas,Satilik,11_15_arasi,bilinmiyor,Soba,bilinmiyor,yok,var,yok,yok,yok,var,var,var,var,yok,yok,yok,yok,yok,yok,yok,yok,yok,yok,yok,yok,yok,yok,yok,yok,yok,yok,yok,yok,yok,kademe_5,bilinmiyor,bilinmiyor,bilinmiyor,50_75_m2,3_oda,alcak_1_3_kat,1_banyo,yok,yok,yok,dusuk,yok,yok,yok,1_5_Milyon_TL_Alti
Tokat,Merkez,Satilik,11_15_arasi,2,Kombi,bilinmiyor,yok,var,var,var,yok,var,yok,var,yok,yok,var,yok,yok,var,yok,yok,yok,yok,yok,yok,yok,yok,yok,yok,yok,yok,yok,yok,yok,yok,kademe_5,normal,bilinmiyor,bilinmiyor,125_150_m2,4_oda,orta_4_7_kat,1_banyo,yok,yok,dusuk,dusuk,yuksek,orta,yok,4_5_Milyon_TL_Arasi
Bartin,Amasra,Satilik,1_5_arasi,4,Kombi,bilinmiyor,yok,var,yok,var,yok,yok,var,var,var,yok,var,yok,yok,var,yok,yok,yok,yok,yok,yok,yok,yok,var,yok,yok,var,yok,yok,yok,yok,kademe_5,iyi,iyi,kotu,75_100_m2,3_oda,orta_4_7_kat,1_banyo,yok,dusuk,yok,dusuk,orta,yuksek,yok,3_4_Milyon_TL_Arasi
Tokat,Merkez,Satilik,1_5_arasi,2,Kombi,bilinmiyor,yok,yok,yok,var,yok,yok,var,yok,yok,yok,var,yok,yok,yok,yok,yok,yok,yok,yok,yok,yok,yok,yok,yok,yok,var,yok,yok,yok,yok,kademe_5,iyi,normal,bilinmiyor,50_75_m2,2_oda,orta_4_7_kat,1_banyo,yok,yok,dusuk,dusuk,yuksek,orta,yok,2_3_Milyon_TL_Arasi
Tokat,Merkez,Satilik,0,Bahce,Kombi,bilinmiyor,yok,var,yok,var,yok,yok,yok,yok,yok,yok,yok,yok,yok,yok,yok,yok,yok,yok,yok,yok,yok,yok,yok,yok,yok,yok,yok,yok,yok,yok,kademe_5,bilinmiyor,bilinmiyor,bilinmiyor,100_125_m2,4_oda,bilinmiyor,1_banyo,yok,yok,yok,dusuk,yok,yok,yok,7_Bucuk_10_Milyon_TL_Arasi
Tokat,Merkez,Satilik,6_10_arasi,3,Kombi_Dogalgaz,bilinmiyor,yok,yok,yok,yok,yok,var,var,yok,yok,yok,yok,yok,yok,yok,yok,yok,yok,yok,yok,yok,yok,yok,yok,yok,yok,yok,yok,yok,yok,yok,kademe_5,normal,normal,kotu,100_125_m2,3_oda,orta_4_7_kat,1_banyo,yok,yok,yok,dusuk,yok,yok,yok,4_5_Milyon_TL_Arasi
Tokat,Turhal,Satilik,21_25_arasi,bilinmiyor,Kombi_Dogalgaz,bilinmiyor,yok,var,yok,yok,yok,var,var,var,var,yok,yok,yok,yok,yok,yok,yok,yok,yok,yok,yok,yok,yok,yok,yok,yok,var,yok,yok,yok,yok,kademe_5,iyi,kotu,bilinmiyor,150_200_m2,4_oda,alcak_1_3_kat,1_banyo,yok,yok,yok,dusuk,dusuk,orta,yok,4_5_Milyon_TL_Arasi
Kahramanmaras,Onikisubat,Satilik,6_10_arasi,8,Merkezi,bilinmiyor,yok,var,yok,var,yok,var,yok,var,yok,yok,var,var,yok,yok,yok,yok,yok,yok,yok,yok,yok,yok,yok,yok,yok,var,yok,yok,yok,yok,kademe_5,normal,kotu,bilinmiyor,150_200_m2,4_oda,yuksek_8_15_kat,2_banyo,dusuk,yok,yok,dusuk,yuksek,orta,yok,3_4_Milyon_TL_Arasi
Hatay,Iskenderun,Satilik,6_10_arasi,1,belirtilmemis_elektrik,bilinmiyor,yok,var,var,yok,yok,yok,yok,yok,yok,yok,var,yok,yok,var,yok,yok,yok,yok,yok,yok,yok,yok,yok,yok,yok,yok,yok,yok,yok,yok,kademe_5,iyi,normal,kotu,0_50_m2,2_oda,orta_4_7_kat,1_banyo,yok,yok,yok,orta,dusuk,orta,yok,1_5_2_Milyon_TL_Arasi
Nigde,Merkez,Satilik,16_20_arasi,4,Kombi_Dogalgaz,bilinmiyor,yok,var,var,yok,yok,var,var,var,yok,yok,var,yok,yok,var,yok,yok,yok,yok,yok,yok,yok,yok,yok,yok,yok,yok,yok,yok,yok,yok,kademe_5,normal,normal,bilinmiyor,150_200_m2,4_oda,orta_4_7_kat,1_banyo,yok,dusuk,yok,dusuk,yok,yuksek,yok,4_5_Milyon_TL_Arasi
Tokat,Merkez,Satilik,16_20_arasi,1,Kombi,bilinmiyor,yok,var,var,var,yok,yok,yok,yok,yok,yok,var,yok,yok,yok,yok,yok,yok,yok,yok,yok,yok,yok,yok,yok,yok,yok,yok,yok,yok,yok,kademe_5,iyi,normal,bilinmiyor,200_300_m2,4_oda,orta_4_7_kat,2_banyo,yok,yok,yok,dusuk,yok,yok,yok,5_7_Bucuk_Milyon_TL_Arasi
Hatay,Defne,Satilik,6_10_arasi,Bahce,isi_pompasi,bilinmiyor,yok,yok,yok,var,yok,var,var,var,var,yok,var,var,yok,var,yok,yok,yok,yok,var,yok,yok,yok,var,yok,yok,yok,yok,var,yok,yok,kademe_5,normal,normal,iyi,300_m2_ve_ustu,7_oda_ve_ustu,alcak_1_3_kat,3_banyo_ve_ustu,dusuk,dusuk,dusuk,dusuk,yok,yuksek,yok,10_Milyon_TL_Ustu
Nigde,Merkez,Satilik,16_20_arasi,Ara_Kat,Kombi_Dogalgaz,bilinmiyor,yok,var,var,yok,var,var,var,var,yok,yok,var,yok,yok,var,yok,yok,yok,yok,yok,yok,yok,yok,yok,yok,yok,var,yok,yok,yok,yok,kademe_5,iyi,iyi,bilinmiyor,150_200_m2,3_oda,orta_4_7_kat,1_banyo,dusuk,dusuk,yok,dusuk,orta,yuksek,yok,4_5_Milyon_TL_Arasi
Kahramanmaras,Dulkadiroglu,Satilik,1_5_arasi,3,Kombi,bilinmiyor,yok,var,yok,var,yok,var,var,var,yok,yok,var,yok,yok,yok,yok,yok,yok,yok,yok,yok,yok,yok,yok,yok,yok,var,yok,yok,var,yok,kademe_5,normal,normal,bilinmiyor,150_200_m2,4_oda,orta_4_7_kat,2_banyo,dusuk,dusuk,yok,dusuk,orta,orta,yok,3_4_Milyon_TL_Arasi
Nigde,Merkez,Satilik,21_25_arasi,4,Kombi,bilinmiyor,yok,var,var,var,yok,var,var,var,yok,yok,yok,yok,yok,yok,yok,yok,yok,yok,yok,yok,yok,yok,yok,yok,yok,yok,yok,yok,yok,yok,kademe_5,bilinmiyor,normal,normal,150_200_m2,4_oda,orta_4_7_kat,1_banyo,yok,yok,yok,dusuk,yok,dusuk,yok,3_4_Milyon_TL_Arasi
Hatay,Defne,Satilik,0,Zemin,Kombi_Dogalgaz,bilinmiyor,yok,yok,var,var,yok,var,var,var,yok,yok,yok,yok,yok,yok,yok,yok,yok,yok,yok,yok,yok,yok,yok,yok,yok,yok,yok,yok,yok,yok,kademe_5,kotu,normal,kotu,100_125_m2,3_oda,orta_4_7_kat,1_banyo,yok,yok,yok,dusuk,dusuk,yok,yok,2_3_Milyon_TL_Arasi
Hatay,Payas,Satilik,6_10_arasi,2,Kombi,bilinmiyor,yok,var,var,var,yok,var,var,var,yok,yok,var,yok,yok,var,yok,yok,yok,yok,yok,yok,yok,yok,var,yok,yok,yok,yok,yok,yok,yok,kademe_5,normal,normal,bilinmiyor,100_125_m2,3_oda,orta_4_7_kat,1_banyo,dusuk,dusuk,dusuk,dusuk,orta,yuksek,yok,2_3_Milyon_TL_Arasi
Hatay,Defne,Satilik,1_5_arasi,bilinmiyor,Kat_Kaloriferi,bilinmiyor,yok,var,yok,yok,yok,yok,yok,var,yok,yok,var,var,yok,var,var,yok,yok,yok,yok,yok,yok,yok,yok,yok,yok,yok,yok,yok,yok,var,kademe_5,bilinmiyor,bilinmiyor,bilinmiyor,300_m2_ve_ustu,7_oda_ve_ustu,alcak_1_3_kat,3_banyo_ve_ustu,dusuk,orta,dusuk,dusuk,yok,yuksek,yok,10_Milyon_TL_Ustu
Hatay,Iskenderun,Satilik,21_25_arasi,3,Klima,bilinmiyor,yok,var,yok,yok,yok,yok,yok,yok,yok,yok,yok,yok,yok,yok,yok,yok,yok,yok,yok,yok,yok,yok,yok,yok,yok,var,yok,yok,yok,yok,kademe_5,kotu,bilinmiyor,bilinmiyor,150_200_m2,4_oda,orta_4_7_kat,1_banyo,dusuk,yok,yok,orta,orta,yuksek,yok,4_5_Milyon_TL_Arasi
Hatay,Defne,Satilik,11_15_arasi,2,Kombi_Dogalgaz,bilinmiyor,yok,var,yok,var,yok,yok,var,var,var,yok,var,yok,yok,yok,yok,yok,yok,yok,yok,yok,yok,yok,yok,yok,yok,yok,yok,yok,yok,yok,kademe_5,bilinmiyor,bilinmiyor,bilinmiyor,150_200_m2,4_oda,orta_4_7_kat,1_banyo,yok,yok,yok,dusuk,yok,orta,yok,3_4_Milyon_TL_Arasi
Kahramanmaras,Onikisubat,Satilik,0,7,Merkezi,bilinmiyor,yok,var,yok,var,yok,var,yok,yok,yok,yok,var,yok,yok,yok,yok,yok,yok,yok,yok,yok,yok,yok,yok,yok,yok,var,yok,yok,yok,yok,kademe_5,iyi,normal,bilinmiyor,50_75_m2,2_oda,yuksek_8_15_kat,1_banyo,dusuk,dusuk,dusuk,dusuk,yuksek,orta,yok,3_4_Milyon_TL_Arasi
Hatay,Iskenderun,Satilik,26_30_arasi,2,Kombi_Dogalgaz,bilinmiyor,yok,var,yok,yok,yok,var,var,var,yok,yok,var,yok,yok,var,yok,yok,yok,yok,yok,yok,yok,yok,yok,yok,yok,yok,yok,yok,yok,yok,kademe_5,normal,kotu,bilinmiyor,100_125_m2,4_oda,orta_4_7_kat,1_banyo,yok,yok,yok,dusuk,yok,orta,yok,2_3_Milyon_TL_Arasi
Hatay,Belen,Satilik,6_10_arasi,Bahce,Klima,bilinmiyor,yok,yok,yok,var,yok,yok,yok,yok,yok,yok,yok,yok,yok,yok,yok,yok,yok,yok,yok,yok,yok,yok,yok,yok,yok,yok,yok,yok,yok,yok,kademe_5,bilinmiyor,bilinmiyor,bilinmiyor,300_m2_ve_ustu,5_oda,orta_4_7_kat,2_banyo,yok,yok,yok,dusuk,yok,dusuk,yok,10_Milyon_TL_Ustu
Hatay,Dortyol,Satilik,1_5_arasi,1,isitma_yok,bilinmiyor,yok,var,var,var,yok,yok,yok,yok,yok,yok,yok,yok,yok,yok,yok,yok,yok,yok,yok,yok,yok,yok,yok,yok,yok,yok,yok,yok,yok,yok,kademe_5,iyi,bilinmiyor,iyi,200_300_m2,5_oda,orta_4_7_kat,2_banyo,yok,yok,yok,dusuk,yok,yok,yok,5_7_Bucuk_Milyon_TL_Arasi
Tokat,Merkez,Satilik,16_20_arasi,2,Kombi_Dogalgaz,bilinmiyor,yok,var,var,yok,yok,var,var,var,var,yok,var,yok,yok,yok,yok,yok,yok,yok,yok,yok,yok,yok,var,yok,yok,var,yok,yok,yok,yok,kademe_5,kotu,normal,bilinmiyor,150_200_m2,5_oda,orta_4_7_kat,1_banyo,yok,yok,dusuk,dusuk,orta,orta,yok,4_5_Milyon_TL_Arasi
Hatay,Arsuz,Satilik,26_30_arasi,Bahce,Kombi,bilinmiyor,yok,var,yok,yok,yok,var,yok,var,var,yok,var,yok,yok,yok,yok,yok,yok,yok,yok,yok,yok,yok,yok,yok,yok,var,var,yok,yok,yok,kademe_5,bilinmiyor,bilinmiyor,bilinmiyor,200_300_m2,6_oda,bilinmiyor,2_banyo,yok,yok,yok,orta,yok,dusuk,yok,10_Milyon_TL_Ustu
Hatay,Kirikhan,Satilik,1_5_arasi,3,Kombi_Dogalgaz,bilinmiyor,yok,var,var,yok,yok,var,var,yok,var,yok,var,yok,yok,yok,yok,yok,yok,yok,yok,yok,yok,yok,var,yok,yok,var,yok,yok,yok,yok,kademe_5,normal,normal,kotu,150_200_m2,4_oda,orta_4_7_kat,2_banyo,yok,yok,yok,dusuk,orta,dusuk,yok,2_3_Milyon_TL_Arasi
Tokat,Merkez,Satilik,0,2,Kombi,bilinmiyor,yok,var,var,var,yok,yok,yok,yok,yok,yok,yok,yok,yok,yok,yok,yok,yok,yok,yok,yok,yok,yok,yok,yok,yok,yok,yok,yok,yok,yok,kademe_5,bilinmiyor,normal,bilinmiyor,0_50_m2,2_oda,orta_4_7_kat,1_banyo,yok,yok,yok,dusuk,yok,yok,yok,3_4_Milyon_TL_Arasi
Hatay,Dortyol,Satilik,6_10_arasi,3,Kombi_Dogalgaz,bilinmiyor,yok,var,var,var,yok,var,var,var,yok,yok,var,yok,yok,yok,yok,yok,yok,yok,yok,yok,yok,yok,yok,yok,yok,var,yok,yok,yok,yok,kademe_5,normal,normal,bilinmiyor,125_150_m2,4_oda,orta_4_7_kat,1_banyo,dusuk,yok,yok,dusuk,orta,yuksek,yok,3_4_Milyon_TL_Arasi
Tokat,Merkez,Satilik,6_10_arasi,6,Kombi,bilinmiyor,yok,var,var,var,yok,var,yok,yok,yok,yok,yok,yok,yok,yok,yok,yok,yok,yok,yok,yok,yok,yok,yok,yok,yok,yok,yok,yok,yok,yok,kademe_5,kotu,normal,kotu,125_150_m2,3_oda,yuksek_8_15_kat,1_banyo,yok,yok,yok,dusuk,yok,yok,yok,3_4_Milyon_TL_Arasi
Hatay,Dortyol,Satilik,11_15_arasi,3,Klima,bilinmiyor,yok,yok,var,yok,yok,yok,yok,yok,yok,yok,yok,yok,yok,yok,yok,yok,yok,yok,yok,yok,yok,yok,yok,yok,yok,yok,yok,yok,yok,yok,kademe_5,iyi,normal,bilinmiyor,125_150_m2,3_oda,orta_4_7_kat,2_banyo,yok,yok,yok,dusuk,yok,dusuk,yok,3_4_Milyon_TL_Arasi
Hatay,Iskenderun,Satilik,6_10_arasi,Yuksek_Giris,Kombi,bilinmiyor,yok,var,var,var,yok,yok,yok,yok,yok,yok,yok,yok,yok,yok,yok,yok,yok,yok,yok,yok,yok,yok,yok,yok,yok,yok,yok,yok,yok,yok,kademe_5,normal,bilinmiyor,normal,125_150_m2,4_oda,yuksek_8_15_kat,2_banyo,yok,yok,yok,dusuk,yok,yok,yok,2_3_Milyon_TL_Arasi
Tokat,Zile,Satilik,21_25_arasi,Bahce,Kombi,bilinmiyor,yok,var,yok,yok,yok,yok,yok,yok,yok,yok,yok,yok,yok,yok,yok,yok,yok,yok,yok,yok,yok,yok,yok,yok,yok,yok,yok,yok,yok,yok,kademe_5,normal,bilinmiyor,kotu,200_300_m2,4_oda,bilinmiyor,3_banyo_ve_ustu,yok,yok,yok,dusuk,yok,yok,yok,5_7_Bucuk_Milyon_TL_Arasi
Hatay,Arsuz,Satilik,21_25_arasi,bilinmiyor,Kombi_Dogalgaz,bilinmiyor,yok,yok,yok,yok,yok,yok,yok,yok,yok,yok,yok,yok,yok,yok,yok,yok,yok,yok,yok,yok,yok,yok,yok,yok,yok,yok,yok,var,yok,yok,kademe_5,iyi,kotu,bilinmiyor,300_m2_ve_ustu,4_oda,alcak_1_3_kat,1_banyo,yok,yok,yok,dusuk,yok,yok,yok,10_Milyon_TL_Ustu
Tokat,Merkez,Satilik,0,2,Kombi,bilinmiyor,yok,yok,yok,var,yok,yok,yok,yok,yok,yok,yok,yok,yok,yok,yok,yok,yok,yok,yok,yok,yok,yok,yok,yok,yok,yok,yok,yok,yok,yok,kademe_5,bilinmiyor,normal,iyi,50_75_m2,2_oda,orta_4_7_kat,1_banyo,yok,yok,yok,dusuk,yok,yok,yok,2_3_Milyon_TL_Arasi
Hatay,Iskenderun,Satilik,26_30_arasi,3,Klima,bilinmiyor,yok,var,yok,var,yok,yok,yok,yok,yok,yok,yok,yok,yok,yok,yok,yok,yok,yok,yok,yok,yok,yok,yok,yok,yok,yok,yok,yok,yok,yok,kademe_5,kotu,normal,bilinmiyor,100_125_m2,4_oda,orta_4_7_kat,1_banyo,yok,yok,yok,dusuk,yok,dusuk,yok,2_3_Milyon_TL_Arasi
Hatay,Iskenderun,Satilik,1_5_arasi,3,Kombi_Dogalgaz,bilinmiyor,yok,var,var,var,yok,yok,yok,yok,yok,yok,var,yok,yok,var,yok,yok,yok,yok,yok,yok,yok,yok,yok,yok,yok,yok,yok,yok,yok,yok,kademe_5,bilinmiyor,bilinmiyor,bilinmiyor,75_100_m2,3_oda,orta_4_7_kat,1_banyo,yok,yok,yok,orta,orta,orta,yok,2_3_Milyon_TL_Arasi
Yozgat,Merkez,Satilik,0,5,Kombi_Dogalgaz,bilinmiyor,yok,var,var,var,yok,yok,yok,yok,yok,yok,yok,yok,yok,var,yok,yok,yok,yok,yok,yok,yok,yok,yok,yok,yok,var,yok,yok,yok,yok,kademe_5,kotu,bilinmiyor,kotu,125_150_m2,5_oda,yuksek_8_15_kat,2_banyo,yok,yok,yok,dusuk,yok,orta,yok,3_4_Milyon_TL_Arasi
Bartin,Merkez,Satilik,1_5_arasi,3,Kombi_Dogalgaz,bilinmiyor,yok,var,var,var,var,yok,yok,var,yok,yok,var,yok,yok,var,yok,yok,yok,yok,yok,yok,yok,yok,yok,yok,yok,yok,yok,yok,yok,yok,kademe_5,bilinmiyor,bilinmiyor,bilinmiyor,75_100_m2,2_oda,orta_4_7_kat,1_banyo,dusuk,yok,yok,dusuk,yok,yuksek,yok,3_4_Milyon_TL_Arasi
Nigde,Merkez,Satilik,31_ve_uzeri,3,Kombi_Dogalgaz,bilinmiyor,yok,var,var,yok,yok,var,var,yok,yok,yok,yok,yok,yok,yok,yok,yok,yok,yok,yok,yok,yok,yok,yok,yok,yok,yok,yok,yok,yok,yok,kademe_5,normal,normal,bilinmiyor,100_125_m2,4_oda,orta_4_7_kat,1_banyo,yok,yok,yok,dusuk,yok,yok,yok,2_3_Milyon_TL_Arasi
Tokat,Turhal,Satilik,26_30_arasi,5,Kombi,bilinmiyor,yok,var,yok,yok,yok,yok,yok,yok,yok,yok,yok,yok,yok,yok,yok,yok,yok,yok,yok,yok,yok,yok,yok,yok,yok,yok,yok,yok,yok,yok,kademe_5,iyi,iyi,bilinmiyor,125_150_m2,4_oda,orta_4_7_kat,1_banyo,yok,yok,yok,dusuk,yok,yok,yok,2_3_Milyon_TL_Arasi
Tokat,Erbaa,Satilik,1_5_arasi,Ara_Kat,Dogalgaz_Sobasi,bilinmiyor,yok,var,var,var,yok,var,yok,var,yok,yok,var,var,yok,var,yok,yok,yok,var,yok,yok,yok,yok,var,yok,yok,var,var,yok,yok,yok,kademe_5,normal,iyi,kotu,200_300_m2,5_oda,orta_4_7_kat,2_banyo,dusuk,dusuk,yok,orta,yuksek,yuksek,yok,5_7_Bucuk_Milyon_TL_Arasi
Hatay,Arsuz,Satilik,6_10_arasi,Ara_Kat,Gunes_Enerjisi,bilinmiyor,yok,yok,yok,yok,yok,yok,yok,yok,yok,yok,yok,yok,yok,yok,yok,yok,yok,yok,yok,yok,yok,yok,yok,yok,yok,yok,yok,yok,yok,yok,kademe_5,kotu,normal,bilinmiyor,75_100_m2,3_oda,orta_4_7_kat,1_banyo,yok,yok,yok,dusuk,yok,yok,yok,2_3_Milyon_TL_Arasi
Kahramanmaras,Onikisubat,Satilik,11_15_arasi,Bahce,bilinmiyor,bilinmiyor,yok,yok,yok,yok,yok,var,var,var,var,yok,yok,yok,yok,yok,yok,yok,yok,yok,yok,yok,yok,yok,var,yok,yok,var,yok,yok,yok,yok,kademe_5,bilinmiyor,bilinmiyor,bilinmiyor,200_300_m2,5_oda,orta_4_7_kat,3_banyo_ve_ustu,yok,yok,yok,dusuk,yok,orta,yok,10_Milyon_TL_Ustu
Tokat,Merkez,Satilik,6_10_arasi,4,Kombi_Dogalgaz,bilinmiyor,yok,var,var,var,yok,var,var,var,var,yok,var,var,yok,var,yok,yok,yok,yok,yok,yok,yok,yok,yok,yok,yok,yok,var,yok,yok,yok,kademe_5,kotu,normal,bilinmiyor,300_m2_ve_ustu,6_oda,orta_4_7_kat,2_banyo,yok,dusuk,yok,dusuk,yok,orta,yok,7_Bucuk_10_Milyon_TL_Arasi
Hatay,Arsuz,Satilik,0,Bahce,Yerden_Isitma,bilinmiyor,yok,yok,yok,var,yok,var,var,var,var,yok,var,var,yok,var,yok,yok,yok,yok,yok,yok,yok,yok,var,yok,yok,var,yok,yok,yok,var,kademe_5,iyi,normal,bilinmiyor,300_m2_ve_ustu,5_oda,orta_4_7_kat,3_banyo_ve_ustu,yok,orta,dusuk,orta,orta,yuksek,yok,10_Milyon_TL_Ustu
Hatay,Iskenderun,Satilik,26_30_arasi,4,Kombi_Dogalgaz,bilinmiyor,yok,var,yok,var,yok,var,var,var,var,yok,var,yok,yok,yok,yok,yok,yok,yok,yok,yok,yok,yok,yok,yok,yok,var,yok,yok,yok,yok,kademe_5,normal,normal,kotu,150_200_m2,4_oda,orta_4_7_kat,1_banyo,yok,yok,yok,orta,yuksek,yuksek,yok,2_3_Milyon_TL_Arasi
Tokat,Niksar,Satilik,0,Ara_Kat,Kombi_Dogalgaz,bilinmiyor,yok,yok,yok,var,yok,var,var,var,var,yok,yok,yok,yok,yok,yok,yok,yok,yok,yok,yok,yok,yok,yok,yok,yok,yok,yok,yok,yok,yok,kademe_5,bilinmiyor,bilinmiyor,bilinmiyor,50_75_m2,2_oda,orta_4_7_kat,1_banyo,yok,yok,yok,dusuk,yok,yok,yok,2_3_Milyon_TL_Arasi
Hatay,Arsuz,Satilik,6_10_arasi,2,Kombi_Dogalgaz,bilinmiyor,yok,yok,yok,yok,yok,yok,yok,yok,yok,yok,yok,yok,yok,yok,yok,yok,yok,yok,yok,yok,yok,yok,var,yok,yok,var,yok,yok,yok,yok,kademe_5,kotu,normal,bilinmiyor,125_150_m2,4_oda,orta_4_7_kat,1_banyo,yok,yok,yok,orta,yok,yok,yok,3_4_Milyon_TL_Arasi
Nigde,Merkez,Satilik,6_10_arasi,7,Merkezi,bilinmiyor,yok,var,var,var,yok,yok,var,yok,var,yok,yok,yok,yok,yok,yok,yok,yok,yok,yok,yok,yok,yok,yok,yok,yok,var,yok,yok,yok,yok,kademe_5,bilinmiyor,iyi,bilinmiyor,150_200_m2,4_oda,yuksek_8_15_kat,2_banyo,yok,yok,yok,dusuk,yok,dusuk,yok,5_7_Bucuk_Milyon_TL_Arasi
Hatay,Belen,Satilik,21_25_arasi,bilinmiyor,Klima,bilinmiyor,yok,var,yok,var,yok,var,yok,var,var,yok,var,yok,yok,yok,yok,yok,yok,yok,yok,yok,yok,yok,yok,yok,yok,yok,yok,yok,yok,var,kademe_5,normal,normal,bilinmiyor,300_m2_ve_ustu,5_oda,orta_4_7_kat,2_banyo,yok,dusuk,dusuk,dusuk,dusuk,yuksek,yok,10_Milyon_TL_Ustu
Hatay,Defne,Satilik,6_10_arasi,3,Kombi_Dogalgaz,bilinmiyor,yok,var,yok,var,var,yok,var,var,yok,yok,var,yok,yok,var,yok,yok,yok,yok,yok,yok,var,yok,var,yok,yok,var,var,yok,yok,yok,kademe_5,kotu,normal,bilinmiyor,300_m2_ve_ustu,7_oda_ve_ustu,orta_4_7_kat,2_banyo,yok,orta,yok,dusuk,yok,orta,yok,5_7_Bucuk_Milyon_TL_Arasi
Hatay,Iskenderun,Satilik,26_30_arasi,5,isitma_yok_elektrik,bilinmiyor,yok,var,yok,yok,yok,yok,var,yok,yok,yok,yok,yok,yok,yok,yok,yok,yok,yok,yok,yok,yok,yok,yok,yok,yok,var,yok,yok,yok,yok,kademe_5,kotu,bilinmiyor,bilinmiyor,150_200_m2,4_oda,orta_4_7_kat,1_banyo,yok,yok,yok,dusuk,yok,orta,yok,2_3_Milyon_TL_Arasi
Hatay,Arsuz,Satilik,11_15_arasi,3,Kombi_Dogalgaz,bilinmiyor,yok,var,var,var,yok,yok,yok,yok,yok,yok,var,yok,yok,yok,yok,yok,yok,yok,yok,yok,yok,yok,yok,yok,yok,yok,yok,yok,yok,yok,kademe_5,iyi,kotu,normal,150_200_m2,4_oda,yuksek_8_15_kat,2_banyo,yok,yok,yok,orta,orta,yuksek,yok,3_4_Milyon_TL_Arasi
Nigde,Merkez,Satilik,0,Bahce,Soba,bilinmiyor,yok,var,yok,var,yok,var,var,var,var,yok,yok,yok,yok,yok,yok,yok,yok,yok,yok,yok,yok,yok,yok,yok,yok,yok,yok,yok,yok,yok,kademe_5,bilinmiyor,iyi,bilinmiyor,300_m2_ve_ustu,4_oda,alcak_1_3_kat,3_banyo_ve_ustu,yok,yok,yok,dusuk,yok,dusuk,yok,5_7_Bucuk_Milyon_TL_Arasi
Hatay,Arsuz,Satilik,11_15_arasi,3,Klima,bilinmiyor,yok,yok,yok,yok,yok,yok,yok,yok,yok,yok,yok,yok,yok,yok,yok,yok,yok,yok,yok,yok,yok,yok,yok,yok,yok,yok,yok,yok,yok,yok,kademe_5,kotu,kotu,normal,100_125_m2,3_oda,orta_4_7_kat,1_banyo,yok,yok,yok,yok,yok,dusuk,yok,2_3_Milyon_TL_Arasi
Tokat,Erbaa,Satilik,21_25_arasi,3,Kombi,bilinmiyor,yok,var,yok,yok,yok,yok,yok,yok,yok,yok,yok,yok,yok,yok,yok,yok,yok,yok,yok,yok,yok,yok,yok,yok,yok,yok,yok,yok,yok,yok,kademe_5,kotu,normal,bilinmiyor,125_150_m2,4_oda,orta_4_7_kat,1_banyo,yok,yok,yok,dusuk,yok,yok,yok,3_4_Milyon_TL_Arasi
Hatay,Payas,Satilik,6_10_arasi,2,Kombi_Dogalgaz,bilinmiyor,yok,var,var,var,yok,yok,yok,var,var,yok,yok,var,yok,var,yok,yok,yok,yok,yok,yok,yok,yok,yok,yok,yok,var,yok,yok,yok,yok,kademe_5,normal,bilinmiyor,kotu,150_200_m2,4_oda,orta_4_7_kat,2_banyo,dusuk,yok,yok,orta,orta,yuksek,yok,3_4_Milyon_TL_Arasi
Hatay,Arsuz,Satilik,6_10_arasi,Ara_Kat,Gunes_Enerjisi,bilinmiyor,yok,yok,var,yok,yok,yok,yok,yok,yok,yok,yok,yok,yok,yok,yok,yok,yok,yok,yok,yok,yok,yok,yok,yok,yok,yok,yok,yok,yok,yok,kademe_5,normal,iyi,normal,150_200_m2,4_oda,orta_4_7_kat,1_banyo,yok,yok,yok,dusuk,yok,yok,yok,3_4_Milyon_TL_Arasi
Tokat,Zile,Satilik,31_ve_uzeri,Bahce,Kombi,bilinmiyor,yok,var,yok,yok,yok,yok,yok,yok,yok,yok,yok,yok,yok,yok,yok,yok,yok,yok,yok,yok,yok,yok,yok,yok,yok,yok,yok,yok,yok,yok,kademe_5,bilinmiyor,bilinmiyor,bilinmiyor,300_m2_ve_ustu,4_oda,bilinmiyor,1_banyo,yok,yok,yok,dusuk,yok,yok,yok,10_Milyon_TL_Ustu
Hatay,Antakya,Satilik,6_10_arasi,Bahce,Kombi,bilinmiyor,yok,var,yok,yok,yok,var,var,var,var,yok,var,yok,yok,var,yok,yok,yok,yok,yok,yok,yok,yok,yok,yok,yok,var,yok,yok,yok,yok,kademe_5,bilinmiyor,bilinmiyor,bilinmiyor,300_m2_ve_ustu,7_oda_ve_ustu,bilinmiyor,3_banyo_ve_ustu,yok,yok,yok,orta,orta,orta,yok,10_Milyon_TL_Ustu
Hatay,Iskenderun,Satilik,0,Yuksek_Giris,Gunes_Enerjisi,bilinmiyor,yok,yok,yok,yok,yok,yok,yok,yok,yok,yok,yok,yok,yok,yok,yok,yok,yok,yok,yok,yok,yok,yok,yok,yok,yok,yok,yok,yok,yok,yok,kademe_5,iyi,normal,iyi,125_150_m2,4_oda,orta_4_7_kat,1_banyo,yok,yok,yok,dusuk,yok,yok,yok,3_4_Milyon_TL_Arasi
Tokat,Merkez,Satilik,0,Yuksek_Giris,Kombi_Dogalgaz,bilinmiyor,yok,yok,yok,yok,yok,var,var,var,var,yok,yok,yok,yok,yok,yok,yok,yok,yok,yok,yok,yok,yok,yok,yok,yok,yok,yok,yok,yok,yok,kademe_5,normal,bilinmiyor,bilinmiyor,125_150_m2,4_oda,orta_4_7_kat,1_banyo,yok,yok,yok,yok,yok,yok,yok,5_7_Bucuk_Milyon_TL_Arasi
Tokat,Niksar,Satilik,0,Ara_Kat,Kombi_Dogalgaz,bilinmiyor,yok,var,var,var,yok,yok,yok,var,yok,yok,var,yok,yok,var,yok,yok,yok,yok,yok,yok,yok,yok,yok,yok,yok,var,yok,yok,yok,yok,kademe_5,normal,bilinmiyor,iyi,125_150_m2,4_oda,orta_4_7_kat,2_banyo,orta,dusuk,yok,orta,orta,orta,yok,4_5_Milyon_TL_Arasi
Kahramanmaras,Onikisubat,Satilik,0,1,Yerden_Isitma,bilinmiyor,yok,var,yok,var,yok,yok,yok,var,yok,yok,var,yok,yok,yok,yok,yok,yok,yok,yok,yok,yok,yok,yok,yok,yok,var,yok,yok,yok,yok,kademe_5,bilinmiyor,normal,iyi,75_100_m2,3_oda,orta_4_7_kat,2_banyo,yok,yok,yok,dusuk,dusuk,dusuk,yok,4_5_Milyon_TL_Arasi
Hatay,Defne,Satilik,1_5_arasi,4,Kombi_Dogalgaz,bilinmiyor,yok,yok,yok,yok,yok,var,yok,var,yok,yok,yok,yok,yok,yok,yok,yok,yok,yok,yok,yok,yok,yok,yok,yok,yok,yok,yok,yok,yok,yok,kademe_5,normal,normal,kotu,75_100_m2,3_oda,orta_4_7_kat,1_banyo,yok,yok,yok,dusuk,yok,yok,yok,1_5_Milyon_TL_Alti
Cankiri,Cerkes,Satilik,11_15_arasi,Yuksek_Giris,Kombi,bilinmiyor,yok,var,yok,var,yok,yok,yok,yok,yok,yok,yok,yok,yok,yok,yok,yok,yok,yok,yok,yok,yok,yok,yok,yok,yok,yok,yok,yok,yok,yok,kademe_5,normal,bilinmiyor,bilinmiyor,150_200_m2,5_oda,orta_4_7_kat,1_banyo,yok,yok,yok,dusuk,yok,yok,yok,3_4_Milyon_TL_Arasi
Nigde,Bor,Satilik,21_25_arasi,1,bilinmiyor,bilinmiyor,yok,var,yok,yok,yok,yok,yok,yok,yok,yok,yok,yok,yok,yok,yok,yok,yok,yok,yok,yok,yok,yok,yok,yok,yok,yok,yok,yok,yok,yok,kademe_5,bilinmiyor,bilinmiyor,bilinmiyor,100_125_m2,4_oda,alcak_1_3_kat,1_banyo,yok,yok,yok,dusuk,yok,yok,yok,2_3_Milyon_TL_Arasi
Kahramanmaras,Onikisubat,Satilik,6_10_arasi,10,Kombi_Dogalgaz,bilinmiyor,yok,var,var,var,yok,yok,yok,var,yok,yok,var,yok,yok,var,yok,yok,yok,yok,yok,yok,yok,yok,var,yok,yok,var,yok,yok,yok,yok,kademe_5,normal,normal,bilinmiyor,125_150_m2,4_oda,yuksek_8_15_kat,1_banyo,dusuk,yok,yok,dusuk,yok,yuksek,yok,2_3_Milyon_TL_Arasi
Hatay,Altinozu,Satilik,1_5_arasi,3,Kombi_Dogalgaz,bilinmiyor,yok,yok,yok,var,yok,yok,var,var,yok,yok,yok,yok,yok,yok,yok,yok,yok,yok,yok,yok,yok,yok,var,yok,yok,yok,yok,yok,yok,yok,kademe_5,normal,kotu,normal,75_100_m2,4_oda,orta_4_7_kat,1_banyo,yok,yok,yok,dusuk,yok,yok,yok,2_3_Milyon_TL_Arasi
Tokat,Niksar,Satilik,1_5_arasi,2,Kombi_Dogalgaz,bilinmiyor,yok,var,yok,var,yok,yok,yok,yok,yok,yok,var,yok,yok,var,yok,yok,yok,yok,yok,yok,yok,yok,var,yok,yok,var,yok,yok,yok,yok,kademe_5,normal,bilinmiyor,bilinmiyor,150_200_m2,4_oda,orta_4_7_kat,1_banyo,yok,yok,dusuk,orta,dusuk,yuksek,yok,4_5_Milyon_TL_Arasi
Nigde,Bor,Satilik,1_5_arasi,3,Kombi,bilinmiyor,yok,var,var,var,yok,yok,yok,yok,var,yok,var,yok,yok,var,yok,yok,yok,yok,yok,yok,yok,var,var,yok,yok,yok,yok,yok,yok,yok,kademe_5,bilinmiyor,bilinmiyor,normal,75_100_m2,2_oda,orta_4_7_kat,1_banyo,dusuk,dusuk,yok,orta,dusuk,orta,yok,2_3_Milyon_TL_Arasi
Hatay,Arsuz,Satilik,21_25_arasi,bilinmiyor,Klima,bilinmiyor,yok,var,yok,var,var,var,var,var,var,yok,yok,var,yok,yok,yok,yok,yok,yok,yok,yok,yok,var,var,yok,yok,var,yok,yok,yok,var,kademe_5,bilinmiyor,bilinmiyor,bilinmiyor,200_300_m2,7_oda_ve_ustu,orta_4_7_kat,2_banyo,dusuk,dusuk,yok,dusuk,orta,yuksek,yok,10_Milyon_TL_Ustu
Hatay,Dortyol,Satilik,11_15_arasi,4,Kombi,bilinmiyor,yok,var,var,var,yok,var,var,yok,var,yok,var,yok,yok,yok,yok,yok,yok,yok,yok,yok,yok,yok,yok,yok,yok,var,yok,yok,yok,yok,kademe_5,normal,normal,bilinmiyor,150_200_m2,4_oda,orta_4_7_kat,1_banyo,yok,yok,dusuk,dusuk,orta,yuksek,yok,3_4_Milyon_TL_Arasi
Hatay,Belen,Satilik,0,3,Kombi,bilinmiyor,yok,var,var,yok,yok,yok,yok,yok,yok,yok,yok,yok,yok,yok,yok,yok,yok,yok,yok,yok,yok,yok,yok,yok,yok,yok,yok,yok,yok,yok,kademe_5,bilinmiyor,normal,iyi,0_50_m2,2_oda,orta_4_7_kat,1_banyo,yok,yok,yok,dusuk,yok,yok,yok,1_5_2_Milyon_TL_Arasi
Erzurum,Yakutiye,Satilik,0,4,Yerden_Isitma,bilinmiyor,yok,var,var,var,yok,var,var,var,var,yok,var,var,yok,var,yok,yok,yok,yok,yok,yok,yok,yok,var,yok,yok,var,yok,yok,yok,yok,kademe_5,iyi,bilinmiyor,bilinmiyor,150_200_m2,4_oda,orta_4_7_kat,2_banyo,dusuk,dusuk,dusuk,orta,orta,yuksek,yok,5_7_Bucuk_Milyon_TL_Arasi
Yozgat,Merkez,Satilik,11_15_arasi,6,Kombi,bilinmiyor,yok,var,var,var,yok,var,var,var,yok,yok,var,yok,yok,var,yok,yok,yok,yok,yok,yok,yok,yok,var,yok,yok,var,yok,yok,yok,yok,kademe_5,normal,normal,bilinmiyor,125_150_m2,4_oda,yuksek_8_15_kat,2_banyo,dusuk,dusuk,dusuk,dusuk,orta,yuksek,yok,3_4_Milyon_TL_Arasi
Hatay,Payas,Satilik,6_10_arasi,5,Kombi,bilinmiyor,yok,var,var,var,yok,var,var,var,yok,yok,var,var,yok,var,yok,yok,yok,yok,yok,yok,yok,var,var,yok,yok,var,yok,yok,yok,yok,kademe_5,kotu,bilinmiyor,bilinmiyor,125_150_m2,4_oda,orta_4_7_kat,2_banyo,orta,dusuk,dusuk,dusuk,orta,yuksek,yok,3_4_Milyon_TL_Arasi
Hatay,Defne,Satilik,11_15_arasi,1,Kombi,bilinmiyor,yok,var,var,var,yok,var,yok,var,yok,yok,var,yok,yok,var,yok,yok,yok,yok,yok,yok,yok,var,var,yok,yok,var,yok,yok,yok,yok,kademe_5,normal,kotu,bilinmiyor,150_200_m2,4_oda,orta_4_7_kat,1_banyo,yok,dusuk,dusuk,dusuk,yuksek,yuksek,yok,2_3_Milyon_TL_Arasi
Tokat,Merkez,Satilik,0,1,Kombi,bilinmiyor,yok,var,yok,var,yok,yok,yok,yok,yok,yok,var,yok,yok,var,yok,yok,yok,yok,yok,yok,yok,yok,yok,yok,yok,var,yok,yok,yok,yok,kademe_5,iyi,normal,bilinmiyor,50_75_m2,2_oda,orta_4_7_kat,1_banyo,yok,yok,yok,dusuk,dusuk,dusuk,yok,1_5_2_Milyon_TL_Arasi
Hatay,Dortyol,Satilik,16_20_arasi,Bahce,Soba,bilinmiyor,yok,var,yok,yok,yok,var,var,var,var,yok,yok,yok,yok,yok,yok,yok,yok,yok,yok,yok,yok,yok,var,yok,yok,var,yok,yok,yok,yok,kademe_5,bilinmiyor,bilinmiyor,bilinmiyor,300_m2_ve_ustu,3_oda,bilinmiyor,1_banyo,dusuk,yok,yok,orta,orta,orta,yok,5_7_Bucuk_Milyon_TL_Arasi
Hatay,Dortyol,Satilik,16_20_arasi,2,Kombi,bilinmiyor,yok,var,yok,var,yok,var,var,var,yok,yok,yok,yok,yok,yok,yok,yok,yok,yok,yok,yok,yok,yok,yok,yok,yok,yok,yok,yok,yok,yok,kademe_5,normal,kotu,bilinmiyor,150_200_m2,4_oda,orta_4_7_kat,1_banyo,yok,yok,yok,dusuk,yok,yok,yok,2_3_Milyon_TL_Arasi
Hatay,Arsuz,Satilik,1_5_arasi,bilinmiyor,Klima,bilinmiyor,yok,var,yok,var,yok,yok,var,var,yok,yok,var,var,yok,yok,var,yok,yok,yok,var,yok,yok,var,var,yok,yok,yok,yok,yok,yok,yok,kademe_5,kotu,bilinmiyor,bilinmiyor,300_m2_ve_ustu,6_oda,orta_4_7_kat,3_banyo_ve_ustu,yok,dusuk,dusuk,dusuk,yok,yuksek,yok,10_Milyon_TL_Ustu
Tokat,Merkez,Satilik,1_5_arasi,4,Kombi,bilinmiyor,yok,var,var,var,yok,var,yok,var,var,yok,var,yok,yok,var,yok,yok,yok,yok,yok,yok,yok,yok,yok,yok,yok,var,yok,yok,var,yok,kademe_5,normal,kotu,bilinmiyor,150_200_m2,5_oda,orta_4_7_kat,1_banyo,yok,dusuk,dusuk,yok,orta,yuksek,yok,5_7_Bucuk_Milyon_TL_Arasi
Tokat,Merkez,Satilik,1_5_arasi,Bahce,Kat_Kaloriferi,bilinmiyor,yok,var,yok,var,var,var,var,var,var,yok,var,var,yok,var,yok,yok,yok,yok,yok,yok,yok,yok,yok,yok,yok,var,yok,yok,yok,var,kademe_5,bilinmiyor,iyi,bilinmiyor,300_m2_ve_ustu,7_oda_ve_ustu,orta_4_7_kat,3_banyo_ve_ustu,dusuk,orta,dusuk,dusuk,yok,yuksek,yok,10_Milyon_TL_Ustu
Tokat,Niksar,Satilik,0,1,Kombi,bilinmiyor,yok,var,yok,yok,yok,yok,yok,yok,yok,yok,yok,yok,yok,yok,yok,yok,yok,yok,yok,yok,yok,yok,yok,yok,yok,yok,yok,yok,yok,yok,kademe_5,kotu,bilinmiyor,bilinmiyor,50_75_m2,2_oda,orta_4_7_kat,1_banyo,yok,yok,yok,dusuk,yok,yok,yok,3_4_Milyon_TL_Arasi
Kahramanmaras,Dulkadiroglu,Satilik,1_5_arasi,bilinmiyor,Klima,bilinmiyor,yok,var,var,var,yok,var,var,var,var,yok,var,yok,yok,yok,yok,yok,yok,yok,yok,yok,yok,yok,var,yok,yok,var,yok,yok,yok,yok,kademe_5,bilinmiyor,bilinmiyor,bilinmiyor,150_200_m2,7_oda_ve_ustu,orta_4_7_kat,2_banyo,dusuk,dusuk,yok,dusuk,dusuk,yuksek,yok,10_Milyon_TL_Ustu
Tokat,Merkez,Satilik,1_5_arasi,11,Kombi,bilinmiyor,yok,var,var,var,yok,var,yok,var,yok,yok,var,yok,yok,yok,yok,yok,yok,yok,yok,yok,yok,yok,yok,yok,yok,var,var,yok,yok,yok,kademe_5,iyi,normal,kotu,300_m2_ve_ustu,7_oda_ve_ustu,yuksek_8_15_kat,2_banyo,dusuk,yok,yok,dusuk,yuksek,orta,yok,5_7_Bucuk_Milyon_TL_Arasi
Erzurum,Aziziye,Satilik,1_5_arasi,Ara_Kat,Merkezi,bilinmiyor,yok,var,var,var,yok,var,yok,yok,var,yok,yok,yok,yok,yok,yok,yok,yok,yok,yok,yok,yok,yok,yok,yok,yok,yok,yok,yok,yok,yok,kademe_5,bilinmiyor,iyi,bilinmiyor,0_50_m2,2_oda,orta_4_7_kat,1_banyo,yok,yok,yok,dusuk,yok,yok,yok,2_3_Milyon_TL_Arasi
Kahramanmaras,Onikisubat,Satilik,11_15_arasi,10,Kombi_Dogalgaz,bilinmiyor,yok,var,yok,yok,yok,var,var,yok,var,yok,yok,yok,yok,yok,yok,yok,yok,yok,yok,yok,yok,yok,yok,yok,yok,yok,yok,yok,yok,yok,kademe_5,iyi,iyi,bilinmiyor,200_300_m2,5_oda,yuksek_8_15_kat,2_banyo,yok,yok,yok,dusuk,yok,yok,yok,7_Bucuk_10_Milyon_TL_Arasi
Hatay,Iskenderun,Satilik,6_10_arasi,Giris,Kombi_Dogalgaz,bilinmiyor,yok,yok,yok,yok,yok,yok,yok,yok,yok,yok,yok,yok,yok,yok,yok,yok,yok,yok,yok,yok,yok,yok,yok,yok,yok,yok,yok,yok,yok,yok,kademe_5,normal,normal,bilinmiyor,150_200_m2,4_oda,orta_4_7_kat,2_banyo,yok,yok,yok,dusuk,yok,yok,yok,7_Bucuk_10_Milyon_TL_Arasi
Tokat,Niksar,Satilik,26_30_arasi,bilinmiyor,Soba,bilinmiyor,yok,yok,yok,yok,yok,var,var,var,var,yok,yok,yok,yok,yok,yok,yok,yok,yok,yok,yok,yok,yok,yok,yok,yok,yok,yok,yok,yok,yok,kademe_5,bilinmiyor,bilinmiyor,bilinmiyor,100_125_m2,5_oda,alcak_1_3_kat,1_banyo,yok,yok,yok,dusuk,dusuk,dusuk,yok,2_3_Milyon_TL_Arasi
Hatay,Dortyol,Satilik,0,2,Kombi,bilinmiyor,yok,var,var,var,yok,var,var,var,var,yok,var,var,yok,var,yok,yok,yok,yok,yok,yok,yok,yok,var,yok,yok,var,yok,yok,yok,yok,kademe_5,normal,bilinmiyor,bilinmiyor,150_200_m2,3_oda,orta_4_7_kat,2_banyo,dusuk,yok,dusuk,orta,yuksek,yuksek,yok,4_5_Milyon_TL_Arasi
Tokat,Merkez,Satilik,0,1,Yerden_Isitma,bilinmiyor,yok,yok,yok,yok,yok,var,var,var,var,yok,yok,yok,yok,yok,yok,yok,yok,yok,yok,yok,yok,yok,yok,yok,yok,yok,yok,yok,yok,yok,kademe_5,normal,normal,bilinmiyor,50_75_m2,2_oda,alcak_1_3_kat,1_banyo,yok,yok,yok,dusuk,yok,yok,yok,3_4_Milyon_TL_Arasi
Hatay,Belen,Satilik,6_10_arasi,Bahce,Kombi,bilinmiyor,yok,var,yok,var,yok,yok,yok,yok,yok,yok,yok,yok,yok,yok,yok,yok,yok,yok,yok,yok,yok,yok,yok,yok,yok,yok,yok,yok,yok,yok,kademe_5,iyi,normal,bilinmiyor,200_300_m2,4_oda,orta_4_7_kat,2_banyo,yok,yok,yok,dusuk,yok,yok,yok,4_5_Milyon_TL_Arasi
Nigde,Merkez,Satilik,0,Bahce,Soba,bilinmiyor,yok,var,yok,var,yok,var,var,var,var,yok,yok,yok,yok,yok,yok,yok,yok,yok,yok,yok,yok,yok,yok,yok,yok,yok,yok,yok,yok,yok,kademe_5,bilinmiyor,bilinmiyor,bilinmiyor,300_m2_ve_ustu,4_oda,alcak_1_3_kat,2_banyo,yok,yok,yok,dusuk,yok,dusuk,yok,5_7_Bucuk_Milyon_TL_Arasi
Hatay,Defne,Satilik,6_10_arasi,bilinmiyor,Kombi_Elektrik,bilinmiyor,yok,var,yok,var,yok,var,var,var,var,yok,var,var,yok,var,yok,yok,yok,yok,yok,yok,yok,yok,var,yok,yok,yok,yok,var,yok,yok,kademe_5,normal,normal,bilinmiyor,300_m2_ve_ustu,7_oda_ve_ustu,alcak_1_3_kat,3_banyo_ve_ustu,dusuk,dusuk,dusuk,dusuk,yok,yuksek,yok,10_Milyon_TL_Ustu
Nigde,Merkez,Satilik,6_10_arasi,12,Merkezi,bilinmiyor,yok,var,var,var,yok,yok,var,yok,var,yok,var,yok,yok,var,yok,yok,yok,yok,yok,yok,yok,yok,yok,yok,yok,var,yok,yok,yok,yok,kademe_5,iyi,iyi,iyi,125_150_m2,4_oda,yuksek_8_15_kat,1_banyo,dusuk,dusuk,dusuk,dusuk,yuksek,yuksek,yok,4_5_Milyon_TL_Arasi
Tokat,Niksar,Satilik,1_5_arasi,Giris,Dogalgaz_Sobasi,bilinmiyor,yok,var,var,var,yok,var,yok,var,yok,yok,var,var,yok,var,var,yok,yok,var,yok,yok,yok,yok,var,yok,yok,var,yok,yok,yok,yok,kademe_5,kotu,iyi,kotu,150_200_m2,6_oda,orta_4_7_kat,2_banyo,dusuk,yok,dusuk,orta,orta,yuksek,yok,5_7_Bucuk_Milyon_TL_Arasi
Hatay,Arsuz,Satilik,6_10_arasi,3,Klima,bilinmiyor,yok,var,yok,var,yok,var,var,var,var,yok,var,yok,yok,yok,yok,yok,yok,yok,yok,yok,yok,yok,var,yok,yok,yok,yok,yok,yok,yok,kademe_5,normal,bilinmiyor,bilinmiyor,125_150_m2,4_oda,orta_4_7_kat,1_banyo,yok,yok,dusuk,dusuk,orta,orta,yok,4_5_Milyon_TL_Arasi
Yozgat,Merkez,Satilik,26_30_arasi,4,Kombi_Dogalgaz,bilinmiyor,yok,yok,var,yok,yok,yok,var,yok,var,yok,yok,yok,yok,yok,yok,yok,yok,yok,yok,yok,yok,yok,yok,yok,yok,yok,yok,yok,yok,yok,kademe_5,normal,kotu,bilinmiyor,125_150_m2,4_oda,orta_4_7_kat,1_banyo,yok,yok,yok,yok,yok,yok,yok,2_3_Milyon_TL_Arasi
Hatay,Antakya,Satilik,11_15_arasi,5,Merkezi,bilinmiyor,yok,var,var,var,yok,yok,yok,yok,yok,yok,var,yok,yok,yok,yok,yok,yok,yok,yok,yok,yok,yok,yok,yok,yok,var,yok,yok,yok,yok,kademe_5,normal,kotu,normal,75_100_m2,3_oda,yuksek_8_15_kat,1_banyo,dusuk,yok,yok,dusuk,orta,yuksek,yok,1_5_2_Milyon_TL_Arasi
Hatay,Dortyol,Satilik,11_15_arasi,4,Kombi,bilinmiyor,yok,var,yok,var,yok,yok,yok,yok,yok,yok,yok,yok,yok,yok,yok,yok,yok,yok,yok,yok,yok,yok,yok,yok,yok,yok,yok,yok,yok,yok,kademe_5,kotu,normal,kotu,125_150_m2,4_oda,orta_4_7_kat,2_banyo,yok,yok,yok,dusuk,yok,yok,yok,3_4_Milyon_TL_Arasi
Yozgat,Merkez,Satilik,1_5_arasi,2,Kombi_Dogalgaz,bilinmiyor,yok,yok,var,yok,var,var,var,var,yok,yok,yok,yok,yok,yok,yok,yok,yok,yok,yok,yok,yok,yok,yok,yok,yok,yok,yok,yok,yok,yok,kademe_5,iyi,kotu,kotu,75_100_m2,3_oda,orta_4_7_kat,1_banyo,yok,yok,yok,yok,yok,yok,yok,2_3_Milyon_TL_Arasi
Kahramanmaras,Elbistan,Satilik,6_10_arasi,3,Klima,bilinmiyor,yok,var,yok,var,var,yok,var,yok,yok,yok,var,yok,yok,yok,yok,yok,yok,yok,yok,yok,yok,yok,yok,yok,yok,yok,yok,yok,yok,yok,kademe_5,bilinmiyor,normal,bilinmiyor,50_75_m2,2_oda,orta_4_7_kat,1_banyo,yok,yok,yok,dusuk,orta,orta,yok,1_5_Milyon_TL_Alti
Tunceli,Merkez,Satilik,6_10_arasi,Bahce,Kombi,bilinmiyor,yok,var,yok,var,yok,yok,yok,var,yok,yok,var,yok,yok,var,yok,yok,yok,yok,yok,yok,yok,yok,yok,yok,yok,var,yok,yok,yok,yok,kademe_5,kotu,kotu,iyi,125_150_m2,4_oda,orta_4_7_kat,1_banyo,yok,dusuk,yok,dusuk,yuksek,yuksek,yok,2_3_Milyon_TL_Arasi
Erzurum,Yakutiye,Satilik,16_20_arasi,Bodrum,Kombi_Dogalgaz,bilinmiyor,yok,yok,var,var,yok,var,yok,var,yok,yok,var,yok,yok,yok,yok,yok,yok,yok,yok,yok,yok,yok,yok,yok,yok,var,yok,yok,yok,yok,kademe_5,normal,normal,normal,125_150_m2,4_oda,orta_4_7_kat,1_banyo,yok,yok,yok,dusuk,yok,yuksek,yok,1_5_Milyon_TL_Alti
Hatay,Arsuz,Satilik,0,2,Klima,bilinmiyor,yok,var,var,yok,yok,var,var,var,yok,yok,var,yok,yok,yok,yok,yok,yok,yok,yok,yok,yok,yok,var,yok,yok,var,var,yok,yok,yok,kademe_5,bilinmiyor,bilinmiyor,bilinmiyor,150_200_m2,4_oda,alcak_1_3_kat,1_banyo,yok,dusuk,dusuk,dusuk,yuksek,yuksek,yok,4_5_Milyon_TL_Arasi
Kahramanmaras,Onikisubat,Satilik,0,1,Merkezi,bilinmiyor,yok,var,var,var,yok,var,yok,var,var,yok,var,var,yok,yok,yok,yok,yok,yok,yok,yok,yok,yok,yok,yok,yok,var,yok,yok,yok,yok,kademe_5,iyi,iyi,bilinmiyor,200_300_m2,6_oda,yuksek_8_15_kat,2_banyo,orta,dusuk,yok,orta,dusuk,yuksek,yok,7_Bucuk_10_Milyon_TL_Arasi
Tokat,Merkez,Satilik,6_10_arasi,2,Kombi_Dogalgaz,bilinmiyor,yok,yok,var,var,var,var,var,var,yok,yok,var,yok,yok,yok,yok,yok,yok,yok,yok,yok,yok,yok,var,yok,yok,var,yok,yok,yok,yok,kademe_5,normal,normal,normal,0_50_m2,1_oda,orta_4_7_kat,1_banyo,yok,yok,yok,dusuk,yok,yuksek,yok,2_3_Milyon_TL_Arasi
Osmaniye,Merkez,Satilik,6_10_arasi,3,Kombi_Dogalgaz,bilinmiyor,yok,var,yok,yok,yok,var,var,var,yok,yok,yok,yok,yok,yok,yok,yok,yok,yok,yok,yok,yok,yok,yok,yok,yok,yok,yok,yok,yok,yok,kademe_5,iyi,iyi,kotu,150_200_m2,4_oda,orta_4_7_kat,2_banyo,yok,yok,yok,dusuk,yok,yok,yok,3_4_Milyon_TL_Arasi
Hatay,Iskenderun,Satilik,31_ve_uzeri,4,isitma_yok,bilinmiyor,yok,var,var,yok,yok,yok,yok,yok,yok,yok,yok,yok,yok,yok,yok,yok,yok,yok,yok,yok,yok,yok,yok,yok,yok,yok,yok,yok,yok,yok,kademe_5,iyi,kotu,kotu,125_150_m2,4_oda,orta_4_7_kat,1_banyo,yok,yok,yok,dusuk,yok,yok,yok,3_4_Milyon_TL_Arasi
Hatay,Antakya,Satilik,6_10_arasi,2,Klima,bilinmiyor,yok,yok,var,var,yok,yok,yok,var,yok,yok,var,yok,yok,var,yok,yok,yok,yok,yok,yok,yok,yok,yok,yok,yok,var,yok,yok,yok,yok,kademe_5,bilinmiyor,bilinmiyor,bilinmiyor,50_75_m2,3_oda,orta_4_7_kat,1_banyo,dusuk,yok,yok,orta,orta,yuksek,yok,1_5_2_Milyon_TL_Arasi
Nigde,Merkez,Satilik,1_5_arasi,Bahce,Kombi,bilinmiyor,yok,var,yok,var,yok,var,var,var,yok,yok,var,yok,yok,var,yok,yok,yok,yok,yok,yok,yok,yok,var,yok,yok,yok,var,yok,yok,yok,kademe_5,kotu,normal,kotu,200_300_m2,4_oda,alcak_1_3_kat,2_banyo,yok,dusuk,dusuk,yok,yok,orta,yok,10_Milyon_TL_Ustu
Tokat,Zile,Satilik,21_25_arasi,5,Kombi,bilinmiyor,yok,var,yok,var,yok,yok,yok,yok,yok,yok,yok,yok,yok,yok,yok,yok,yok,yok,yok,yok,yok,yok,yok,yok,yok,yok,yok,yok,yok,yok,kademe_5,bilinmiyor,bilinmiyor,normal,125_150_m2,4_oda,yuksek_8_15_kat,1_banyo,yok,yok,yok,dusuk,yok,yok,yok,2_3_Milyon_TL_Arasi
Hatay,Defne,Satilik,1_5_arasi,5,Kombi,bilinmiyor,yok,var,var,yok,yok,yok,yok,yok,yok,yok,yok,yok,yok,yok,yok,yok,yok,yok,yok,yok,yok,yok,yok,yok,yok,yok,yok,yok,yok,yok,kademe_5,kotu,normal,kotu,100_125_m2,3_oda,orta_4_7_kat,1_banyo,yok,yok,dusuk,orta,orta,yok,yok,1_5_2_Milyon_TL_Arasi
Tokat,Merkez,Satilik,16_20_arasi,8,Kombi,bilinmiyor,yok,var,var,var,yok,yok,var,var,yok,yok,yok,yok,yok,yok,yok,yok,yok,yok,yok,yok,yok,yok,yok,yok,yok,yok,yok,yok,yok,yok,kademe_5,bilinmiyor,normal,kotu,125_150_m2,4_oda,yuksek_8_15_kat,1_banyo,yok,yok,yok,dusuk,yok,yok,yok,3_4_Milyon_TL_Arasi
Hatay,Iskenderun,Satilik,6_10_arasi,En_Ust_Kat,Kombi_Dogalgaz,bilinmiyor,yok,var,var,yok,yok,var,var,var,var,yok,var,var,yok,yok,yok,yok,yok,yok,yok,yok,yok,var,var,yok,yok,var,yok,yok,var,yok,kademe_5,iyi,normal,bilinmiyor,200_300_m2,4_oda,orta_4_7_kat,2_banyo,yok,dusuk,yok,dusuk,yok,yuksek,yok,5_7_Bucuk_Milyon_TL_Arasi
Hatay,Kirikhan,Satilik,6_10_arasi,Giris,Kombi,bilinmiyor,yok,yok,var,var,yok,var,var,var,var,yok,yok,yok,yok,yok,yok,yok,yok,yok,yok,yok,yok,yok,yok,yok,yok,yok,yok,yok,yok,yok,kademe_5,iyi,normal,bilinmiyor,125_150_m2,4_oda,orta_4_7_kat,1_banyo,yok,yok,yok,dusuk,yok,dusuk,yok,1_5_2_Milyon_TL_Arasi
Hatay,Iskenderun,Satilik,1_5_arasi,Ara_Kat,Kombi_Dogalgaz,bilinmiyor,yok,var,var,yok,yok,var,var,yok,var,yok,yok,yok,yok,yok,yok,yok,yok,yok,yok,yok,yok,yok,yok,yok,yok,yok,yok,yok,yok,yok,kademe_5,normal,normal,normal,150_200_m2,4_oda,yuksek_8_15_kat,1_banyo,yok,yok,yok,dusuk,yok,yok,yok,3_4_Milyon_TL_Arasi
Hatay,Dortyol,Satilik,21_25_arasi,2,isitma_yok,bilinmiyor,yok,var,yok,yok,yok,yok,yok,yok,yok,yok,yok,yok,yok,yok,yok,yok,yok,yok,yok,yok,yok,yok,yok,yok,yok,yok,yok,yok,yok,yok,kademe_5,kotu,kotu,kotu,150_200_m2,4_oda,orta_4_7_kat,1_banyo,yok,yok,yok,dusuk,yok,yok,yok,2_3_Milyon_TL_Arasi
Hatay,Iskenderun,Satilik,6_10_arasi,5,isitma_yok,bilinmiyor,yok,yok,yok,var,yok,var,var,var,yok,yok,var,var,yok,var,yok,yok,yok,yok,yok,yok,yok,yok,yok,yok,yok,var,var,yok,yok,yok,kademe_5,iyi,bilinmiyor,kotu,50_75_m2,2_oda,orta_4_7_kat,2_banyo,yok,yok,dusuk,orta,yuksek,yuksek,yok,2_3_Milyon_TL_Arasi
Hatay,Defne,Satilik,6_10_arasi,3,Kombi_Dogalgaz,bilinmiyor,yok,var,var,yok,yok,var,var,yok,var,yok,yok,yok,yok,yok,yok,yok,yok,yok,yok,yok,yok,yok,yok,yok,yok,yok,yok,yok,yok,yok,kademe_5,iyi,normal,kotu,100_125_m2,3_oda,orta_4_7_kat,1_banyo,yok,yok,yok,dusuk,yok,yok,yok,1_5_2_Milyon_TL_Arasi
Hatay,Antakya,Satilik,11_15_arasi,Kot_3,Klima,bilinmiyor,yok,var,yok,var,yok,yok,yok,yok,yok,yok,var,yok,yok,yok,yok,yok,yok,yok,yok,yok,yok,yok,var,yok,yok,var,var,yok,yok,yok,kademe_5,normal,bilinmiyor,bilinmiyor,150_200_m2,7_oda_ve_ustu,orta_4_7_kat,2_banyo,yok,yok,yok,orta,orta,dusuk,yok,5_7_Bucuk_Milyon_TL_Arasi
Kahramanmaras,Onikisubat,Satilik,6_10_arasi,3,Kombi,bilinmiyor,yok,var,yok,var,yok,var,yok,yok,yok,yok,var,yok,yok,yok,yok,yok,yok,yok,yok,yok,yok,yok,yok,yok,yok,yok,yok,yok,yok,yok,kademe_5,normal,normal,normal,125_150_m2,4_oda,yuksek_8_15_kat,1_banyo,dusuk,yok,yok,dusuk,orta,orta,yok,3_4_Milyon_TL_Arasi
Tokat,Niksar,Satilik,0,2,Kombi_Dogalgaz,bilinmiyor,yok,var,var,yok,yok,yok,yok,var,yok,yok,var,yok,yok,var,yok,yok,yok,var,yok,yok,yok,yok,yok,yok,yok,yok,yok,yok,yok,yok,kademe_5,normal,normal,kotu,100_125_m2,3_oda,orta_4_7_kat,1_banyo,yok,yok,yok,dusuk,orta,orta,yok,4_5_Milyon_TL_Arasi
Kahramanmaras,Elbistan,Satilik,1_5_arasi,Kot_3,Kombi,bilinmiyor,yok,yok,var,var,yok,yok,yok,yok,yok,yok,yok,yok,yok,yok,yok,yok,yok,yok,yok,yok,yok,yok,yok,yok,yok,yok,yok,yok,yok,yok,kademe_5,iyi,bilinmiyor,bilinmiyor,150_200_m2,4_oda,orta_4_7_kat,2_banyo,yok,yok,yok,dusuk,yok,yok,yok,3_4_Milyon_TL_Arasi
Hatay,Antakya,Satilik,11_15_arasi,3,Merkezi,bilinmiyor,yok,var,var,var,yok,yok,yok,var,var,yok,var,yok,yok,yok,yok,yok,yok,yok,yok,yok,yok,yok,yok,yok,yok,var,yok,yok,yok,yok,kademe_5,kotu,bilinmiyor,bilinmiyor,75_100_m2,3_oda,yuksek_8_15_kat,1_banyo,dusuk,yok,yok,orta,orta,yuksek,yok,1_5_2_Milyon_TL_Arasi
Tokat,Merkez,Satilik,11_15_arasi,Giris,Kombi,bilinmiyor,yok,var,var,var,yok,yok,yok,yok,yok,yok,yok,yok,yok,yok,yok,yok,yok,yok,yok,yok,yok,yok,yok,yok,yok,yok,yok,yok,yok,yok,kademe_5,iyi,normal,bilinmiyor,50_75_m2,2_oda,orta_4_7_kat,1_banyo,yok,yok,yok,yok,yok,yok,yok,2_3_Milyon_TL_Arasi
Tokat,Merkez,Satilik,11_15_arasi,Yuksek_Giris,Kombi_Dogalgaz,bilinmiyor,yok,yok,yok,yok,yok,yok,yok,yok,yok,yok,yok,yok,yok,yok,yok,yok,yok,yok,yok,yok,yok,yok,yok,yok,yok,yok,yok,yok,yok,yok,kademe_5,kotu,kotu,bilinmiyor,100_125_m2,3_oda,orta_4_7_kat,1_banyo,yok,yok,yok,dusuk,yok,yok,yok,2_3_Milyon_TL_Arasi
Hatay,Iskenderun,Satilik,21_25_arasi,bilinmiyor,Kombi_Dogalgaz,bilinmiyor,yok,var,yok,var,yok,yok,yok,yok,yok,yok,var,yok,yok,yok,yok,yok,yok,yok,yok,yok,yok,yok,yok,yok,yok,yok,var,yok,yok,yok,kademe_5,normal,bilinmiyor,bilinmiyor,200_300_m2,5_oda,alcak_1_3_kat,2_banyo,yok,dusuk,yok,dusuk,yok,orta,yok,7_Bucuk_10_Milyon_TL_Arasi
Hatay,Kirikhan,Satilik,11_15_arasi,Bahce,Soba,bilinmiyor,yok,var,yok,yok,yok,var,var,var,var,yok,var,yok,yok,yok,yok,yok,yok,yok,yok,yok,yok,yok,yok,yok,yok,yok,yok,yok,yok,yok,kademe_5,kotu,bilinmiyor,kotu,300_m2_ve_ustu,2_oda,bilinmiyor,1_banyo,yok,yok,yok,dusuk,yok,yok,yok,1_5_2_Milyon_TL_Arasi
Nigde,Merkez,Satilik,21_25_arasi,bilinmiyor,Kombi_Dogalgaz,bilinmiyor,yok,var,yok,yok,yok,var,var,var,var,yok,yok,yok,yok,yok,yok,yok,yok,yok,yok,yok,yok,yok,yok,yok,yok,yok,yok,yok,yok,yok,kademe_5,kotu,kotu,bilinmiyor,125_150_m2,4_oda,alcak_1_3_kat,1_banyo,yok,yok,yok,dusuk,yok,yok,yok,5_7_Bucuk_Milyon_TL_Arasi
Osmaniye,Duzici,Satilik,6_10_arasi,4,Kombi,bilinmiyor,yok,var,var,var,yok,yok,var,yok,var,yok,var,var,yok,var,yok,yok,yok,yok,yok,yok,yok,yok,var,yok,yok,var,yok,yok,yok,yok,kademe_5,bilinmiyor,bilinmiyor,bilinmiyor,150_200_m2,4_oda,yuksek_8_15_kat,1_banyo,dusuk,yok,dusuk,dusuk,orta,orta,yok,2_3_Milyon_TL_Arasi
Hatay,Antakya,Satilik,11_15_arasi,3,Kombi_Dogalgaz,bilinmiyor,yok,var,var,var,yok,var,var,yok,yok,yok,yok,yok,yok,yok,yok,yok,yok,yok,yok,yok,yok,yok,yok,yok,yok,var,yok,yok,yok,yok,kademe_5,normal,normal,kotu,150_200_m2,4_oda,orta_4_7_kat,1_banyo,dusuk,yok,yok,orta,orta,yuksek,yok,4_5_Milyon_TL_Arasi
Tokat,Erbaa,Satilik,1_5_arasi,Bahce,Soba,bilinmiyor,yok,yok,yok,yok,var,yok,yok,yok,yok,yok,yok,yok,yok,yok,yok,yok,yok,yok,yok,yok,yok,yok,yok,yok,yok,yok,yok,yok,yok,yok,kademe_5,bilinmiyor,bilinmiyor,bilinmiyor,300_m2_ve_ustu,7_oda_ve_ustu,alcak_1_3_kat,2_banyo,yok,yok,yok,dusuk,yok,yok,yok,7_Bucuk_10_Milyon_TL_Arasi
Hatay,Dortyol,Satilik,6_10_arasi,1,bilinmiyor,bilinmiyor,yok,var,yok,yok,yok,yok,yok,yok,yok,yok,yok,yok,yok,yok,yok,yok,yok,yok,yok,yok,yok,yok,yok,yok,yok,yok,yok,yok,yok,yok,kademe_5,bilinmiyor,bilinmiyor,bilinmiyor,150_200_m2,5_oda,alcak_1_3_kat,1_banyo,yok,yok,yok,dusuk,dusuk,yok,yok,4_5_Milyon_TL_Arasi
Tokat,Niksar,Satilik,0,Ara_Kat,Dogalgaz_Sobasi,bilinmiyor,yok,yok,yok,yok,yok,yok,yok,var,yok,yok,yok,yok,yok,yok,yok,yok,yok,yok,yok,yok,yok,yok,var,yok,yok,var,yok,yok,yok,yok,kademe_5,bilinmiyor,bilinmiyor,bilinmiyor,50_75_m2,2_oda,orta_4_7_kat,1_banyo,yok,yok,yok,orta,orta,yok,yok,2_3_Milyon_TL_Arasi
Hatay,Iskenderun,Satilik,31_ve_uzeri,En_Ust_Kat,Kombi_Dogalgaz,bilinmiyor,yok,var,var,yok,var,yok,yok,yok,yok,yok,var,var,yok,var,var,yok,yok,yok,yok,yok,yok,var,yok,yok,yok,var,yok,yok,yok,yok,kademe_5,normal,kotu,bilinmiyor,300_m2_ve_ustu,6_oda,orta_4_7_kat,2_banyo,yok,orta,yok,orta,orta,yuksek,yok,7_Bucuk_10_Milyon_TL_Arasi
Kahramanmaras,Onikisubat,Satilik,1_5_arasi,5,Kombi,bilinmiyor,yok,var,yok,var,yok,var,yok,yok,var,yok,yok,yok,yok,yok,yok,yok,yok,yok,yok,yok,yok,yok,yok,var,yok,yok,yok,yok,yok,yok,kademe_5,kotu,normal,kotu,150_200_m2,4_oda,yuksek_8_15_kat,2_banyo,yok,yok,yok,dusuk,orta,dusuk,yok,3_4_Milyon_TL_Arasi
Tokat,Merkez,Satilik,16_20_arasi,2,Kombi_Dogalgaz,bilinmiyor,yok,var,var,var,yok,var,var,var,var,yok,yok,yok,yok,yok,yok,yok,yok,yok,yok,yok,yok,yok,yok,yok,yok,yok,yok,yok,yok,yok,kademe_5,iyi,normal,bilinmiyor,125_150_m2,4_oda,orta_4_7_kat,1_banyo,yok,yok,yok,dusuk,yok,yok,yok,5_7_Bucuk_Milyon_TL_Arasi
Hatay,Belen,Satilik,11_15_arasi,2,Kombi_Dogalgaz,bilinmiyor,yok,var,var,yok,yok,yok,var,var,yok,yok,var,yok,yok,yok,yok,yok,yok,yok,yok,yok,yok,yok,yok,yok,yok,var,yok,yok,yok,yok,kademe_5,kotu,normal,bilinmiyor,75_100_m2,3_oda,orta_4_7_kat,1_banyo,dusuk,yok,yok,orta,orta,yuksek,yok,1_5_2_Milyon_TL_Arasi
Osmaniye,Merkez,Satilik,6_10_arasi,4,Kombi_Dogalgaz,bilinmiyor,yok,yok,yok,yok,yok,var,var,var,var,yok,yok,yok,yok,yok,yok,yok,yok,yok,yok,yok,yok,yok,yok,yok,yok,yok,yok,yok,yok,yok,kademe_5,iyi,normal,normal,150_200_m2,5_oda,orta_4_7_kat,2_banyo,yok,yok,yok,orta,dusuk,yok,yok,3_4_Milyon_TL_Arasi
Hatay,Arsuz,Satilik,0,2,Klima,bilinmiyor,yok,var,var,var,yok,yok,yok,yok,yok,yok,yok,yok,yok,yok,yok,yok,yok,yok,yok,yok,yok,yok,var,yok,yok,yok,yok,yok,yok,yok,kademe_5,normal,bilinmiyor,iyi,150_200_m2,5_oda,orta_4_7_kat,2_banyo,yok,yok,yok,dusuk,yok,dusuk,yok,5_7_Bucuk_Milyon_TL_Arasi
Yozgat,Merkez,Satilik,0,3,Kombi_Dogalgaz,bilinmiyor,yok,var,var,var,yok,yok,yok,yok,yok,yok,var,yok,yok,yok,yok,yok,yok,var,yok,yok,yok,yok,var,yok,yok,var,yok,yok,yok,yok,kademe_5,iyi,normal,bilinmiyor,50_75_m2,3_oda,orta_4_7_kat,1_banyo,yok,yok,yok,dusuk,orta,yuksek,yok,2_3_Milyon_TL_Arasi
Kahramanmaras,Onikisubat,Satilik,0,1,Merkezi,bilinmiyor,yok,var,yok,var,yok,yok,var,var,var,yok,yok,yok,yok,yok,yok,yok,yok,yok,yok,yok,yok,yok,yok,yok,yok,yok,yok,yok,yok,yok,kademe_5,iyi,iyi,bilinmiyor,150_200_m2,4_oda,yuksek_8_15_kat,2_banyo,yok,yok,yok,dusuk,yok,yok,yok,5_7_Bucuk_Milyon_TL_Arasi
Tokat,Merkez,Satilik,1_5_arasi,5,Merkezi,bilinmiyor,yok,yok,yok,yok,yok,yok,yok,var,yok,yok,yok,yok,yok,yok,yok,yok,yok,yok,yok,yok,yok,yok,yok,yok,yok,yok,yok,yok,yok,yok,kademe_5,normal,bilinmiyor,bilinmiyor,50_75_m2,2_oda,cok_yuksek_16_ustu_kat,1_banyo,yok,yok,yok,dusuk,yok,yok,yok,2_3_Milyon_TL_Arasi
Hatay,Belen,Satilik,1_5_arasi,1,Kombi_Dogalgaz,bilinmiyor,yok,var,yok,var,yok,var,yok,var,yok,yok,var,var,yok,yok,yok,yok,yok,yok,var,yok,yok,yok,var,yok,yok,yok,yok,yok,yok,yok,kademe_5,bilinmiyor,bilinmiyor,kotu,200_300_m2,4_oda,yuksek_8_15_kat,2_banyo,dusuk,yok,yok,orta,yok,yuksek,yok,5_7_Bucuk_Milyon_TL_Arasi
Hatay,Erzin,Satilik,1_5_arasi,5,Kombi,bilinmiyor,yok,var,var,yok,yok,var,yok,var,yok,yok,var,yok,yok,var,yok,yok,yok,yok,yok,yok,yok,yok,var,yok,yok,var,yok,yok,yok,yok,kademe_5,kotu,iyi,normal,150_200_m2,4_oda,orta_4_7_kat,1_banyo,yok,dusuk,yok,orta,dusuk,yuksek,yok,3_4_Milyon_TL_Arasi
Hatay,Iskenderun,Satilik,21_25_arasi,4,Klima,bilinmiyor,yok,var,var,yok,yok,yok,yok,yok,yok,yok,var,yok,yok,yok,yok,yok,yok,yok,yok,yok,yok,yok,yok,yok,yok,yok,yok,yok,yok,yok,kademe_5,normal,normal,bilinmiyor,150_200_m2,4_oda,orta_4_7_kat,1_banyo,yok,dusuk,yok,dusuk,yok,yuksek,yok,5_7_Bucuk_Milyon_TL_Arasi
Erzurum,Aziziye,Satilik,1_5_arasi,3,Yerden_Isitma,bilinmiyor,yok,var,var,var,yok,var,yok,yok,yok,yok,yok,yok,yok,yok,yok,yok,yok,yok,yok,yok,yok,yok,yok,yok,yok,var,yok,yok,yok,yok,kademe_5,bilinmiyor,bilinmiyor,iyi,0_50_m2,2_oda,orta_4_7_kat,1_banyo,dusuk,yok,yok,orta,yuksek,yuksek,yok,1_5_2_Milyon_TL_Arasi
Hatay,Arsuz,Satilik,11_15_arasi,1,Klima,bilinmiyor,yok,var,var,var,yok,var,yok,var,yok,yok,var,yok,yok,yok,yok,yok,yok,yok,yok,yok,yok,yok,var,yok,yok,var,yok,yok,yok,yok,kademe_5,bilinmiyor,iyi,normal,75_100_m2,3_oda,orta_4_7_kat,1_banyo,yok,yok,yok,orta,orta,orta,yok,2_3_Milyon_TL_Arasi
Bartin,Merkez,Satilik,6_10_arasi,2,Kombi,bilinmiyor,yok,var,var,var,yok,var,yok,var,yok,yok,var,var,yok,var,yok,yok,yok,yok,yok,yok,yok,yok,yok,yok,yok,var,yok,yok,yok,yok,kademe_5,normal,normal,normal,125_150_m2,4_oda,orta_4_7_kat,1_banyo,dusuk,yok,dusuk,dusuk,yuksek,orta,yok,5_7_Bucuk_Milyon_TL_Arasi
Hatay,Antakya,Satilik,6_10_arasi,2,Klima,bilinmiyor,yok,var,yok,yok,var,var,yok,yok,yok,yok,var,yok,yok,yok,yok,yok,yok,yok,yok,yok,yok,yok,yok,yok,yok,var,yok,yok,yok,yok,kademe_5,normal,normal,normal,50_75_m2,3_oda,orta_4_7_kat,1_banyo,yok,yok,yok,dusuk,dusuk,dusuk,yok,1_5_Milyon_TL_Alti
Hatay,Iskenderun,Satilik,1_5_arasi,2,Klima,bilinmiyor,yok,var,var,yok,var,yok,yok,yok,yok,yok,var,yok,yok,var,yok,yok,yok,var,yok,yok,yok,yok,yok,yok,yok,yok,yok,yok,yok,yok,kademe_5,normal,normal,bilinmiyor,50_75_m2,2_oda,orta_4_7_kat,1_banyo,dusuk,dusuk,yok,dusuk,yok,yuksek,yok,2_3_Milyon_TL_Arasi
Kahramanmaras,Dulkadiroglu,Satilik,1_5_arasi,Giris,Kombi,bilinmiyor,yok,yok,var,var,yok,var,var,var,yok,yok,yok,yok,yok,yok,yok,yok,yok,yok,yok,yok,yok,yok,yok,yok,yok,var,yok,yok,yok,yok,kademe_5,normal,normal,bilinmiyor,75_100_m2,3_oda,orta_4_7_kat,1_banyo,yok,yok,yok,dusuk,dusuk,dusuk,yok,1_5_2_Milyon_TL_Arasi
Hatay,Arsuz,Satilik,11_15_arasi,11,Klima,bilinmiyor,yok,var,var,var,yok,yok,yok,yok,yok,yok,yok,yok,yok,yok,yok,yok,yok,yok,yok,yok,yok,var,var,yok,yok,var,yok,yok,yok,yok,kademe_5,iyi,normal,normal,150_200_m2,4_oda,yuksek_8_15_kat,2_banyo,yok,yok,dusuk,dusuk,yok,yuksek,yok,5_7_Bucuk_Milyon_TL_Arasi
Hatay,Iskenderun,Satilik,11_15_arasi,1,Gunes_Enerjisi,bilinmiyor,yok,var,var,yok,yok,yok,yok,yok,yok,yok,yok,yok,yok,yok,yok,yok,yok,yok,yok,yok,yok,yok,yok,yok,yok,yok,yok,yok,yok,yok,kademe_5,normal,normal,kotu,100_125_m2,4_oda,orta_4_7_kat,1_banyo,yok,yok,yok,dusuk,yok,yok,yok,2_3_Milyon_TL_Arasi
Tokat,Merkez,Satilik,0,3,Kombi_Dogalgaz,bilinmiyor,yok,var,var,var,yok,var,var,var,var,yok,var,yok,yok,var,yok,yok,yok,yok,yok,yok,yok,yok,yok,yok,yok,var,yok,yok,yok,yok,kademe_5,bilinmiyor,bilinmiyor,bilinmiyor,50_75_m2,2_oda,orta_4_7_kat,1_banyo,dusuk,yok,yok,dusuk,yok,yuksek,yok,3_4_Milyon_TL_Arasi
Tokat,Niksar,Satilik,21_25_arasi,En_Ust_Kat,Kombi_Dogalgaz,bilinmiyor,yok,yok,yok,yok,yok,var,var,var,var,yok,yok,yok,yok,yok,yok,yok,yok,yok,yok,yok,yok,yok,yok,yok,yok,yok,yok,yok,yok,yok,kademe_5,kotu,kotu,bilinmiyor,100_125_m2,3_oda,orta_4_7_kat,1_banyo,yok,yok,yok,dusuk,yok,yok,yok,2_3_Milyon_TL_Arasi
Tokat,Niksar,Satilik,1_5_arasi,bilinmiyor,Soba,bilinmiyor,yok,var,yok,yok,var,var,var,var,var,yok,var,yok,yok,var,yok,yok,yok,yok,yok,yok,yok,yok,var,yok,yok,yok,yok,yok,yok,yok,kademe_5,normal,kotu,bilinmiyor,300_m2_ve_ustu,3_oda,alcak_1_3_kat,1_banyo,yok,yok,yok,dusuk,yok,dusuk,yok,4_5_Milyon_TL_Arasi
Hatay,Defne,Satilik,1_5_arasi,1,Kombi_Dogalgaz,bilinmiyor,yok,yok,var,var,yok,var,var,var,var,yok,yok,yok,yok,yok,yok,yok,yok,yok,yok,yok,yok,yok,yok,yok,yok,yok,yok,yok,yok,yok,kademe_5,iyi,normal,bilinmiyor,100_125_m2,3_oda,orta_4_7_kat,1_banyo,yok,yok,yok,dusuk,yok,yok,yok,1_5_2_Milyon_TL_Arasi
Hatay,Antakya,Satilik,6_10_arasi,2,Kombi_Dogalgaz,bilinmiyor,yok,var,var,var,yok,yok,var,var,var,yok,var,yok,yok,var,yok,yok,yok,yok,yok,yok,yok,yok,var,yok,yok,var,yok,yok,yok,yok,kademe_5,normal,normal,bilinmiyor,100_125_m2,3_oda,orta_4_7_kat,1_banyo,dusuk,dusuk,yok,orta,orta,yuksek,yok,2_3_Milyon_TL_Arasi
Hatay,Payas,Satilik,11_15_arasi,6,Kombi,bilinmiyor,yok,var,var,var,yok,var,var,yok,var,yok,var,var,yok,yok,yok,yok,yok,yok,yok,yok,yok,yok,yok,var,yok,yok,yok,yok,yok,yok,kademe_5,normal,kotu,bilinmiyor,150_200_m2,4_oda,orta_4_7_kat,2_banyo,yok,yok,yok,dusuk,orta,orta,yok,3_4_Milyon_TL_Arasi
Hatay,Belen,Satilik,26_30_arasi,bilinmiyor,Kombi_Dogalgaz,bilinmiyor,yok,var,yok,yok,yok,var,var,var,yok,yok,var,yok,yok,var,yok,yok,yok,yok,yok,yok,yok,yok,var,yok,yok,yok,yok,yok,yok,var,kademe_5,normal,normal,iyi,200_300_m2,5_oda,orta_4_7_kat,1_banyo,yok,dusuk,yok,dusuk,dusuk,orta,yok,7_Bucuk_10_Milyon_TL_Arasi
Hatay,Arsuz,Satilik,0,En_Ust_Kat,Klima,bilinmiyor,yok,yok,yok,yok,yok,yok,yok,yok,yok,yok,yok,yok,yok,yok,yok,yok,yok,yok,yok,yok,yok,yok,yok,yok,yok,yok,yok,yok,yok,yok,kademe_5,iyi,bilinmiyor,bilinmiyor,100_125_m2,4_oda,alcak_1_3_kat,1_banyo,yok,yok,yok,dusuk,yok,dusuk,yok,4_5_Milyon_TL_Arasi
Hatay,Dortyol,Satilik,1_5_arasi,4,Kombi_Dogalgaz,bilinmiyor,yok,yok,yok,yok,yok,var,yok,yok,var,yok,yok,yok,yok,yok,yok,yok,yok,yok,yok,yok,yok,yok,yok,yok,yok,yok,yok,yok,yok,yok,kademe_5,iyi,normal,bilinmiyor,150_200_m2,4_oda,yuksek_8_15_kat,2_banyo,yok,yok,yok,dusuk,yok,yok,yok,4_5_Milyon_TL_Arasi
Erzurum,Palandoken,Satilik,16_20_arasi,Bodrum,Merkezi,bilinmiyor,yok,yok,var,var,yok,var,yok,yok,var,yok,var,yok,yok,yok,yok,yok,yok,yok,yok,yok,yok,yok,yok,yok,yok,yok,yok,yok,yok,yok,kademe_5,kotu,bilinmiyor,bilinmiyor,125_150_m2,4_oda,orta_4_7_kat,1_banyo,dusuk,yok,dusuk,orta,yuksek,yuksek,yok,1_5_Milyon_TL_Alti
Cankiri,Atkaracalar,Satilik,11_15_arasi,Bahce,Kombi,bilinmiyor,yok,var,yok,var,yok,yok,yok,yok,yok,yok,yok,yok,yok,yok,yok,yok,yok,yok,yok,yok,yok,yok,yok,yok,yok,yok,yok,yok,yok,yok,kademe_5,bilinmiyor,bilinmiyor,kotu,100_125_m2,3_oda,bilinmiyor,1_banyo,yok,yok,yok,dusuk,yok,yok,yok,3_4_Milyon_TL_Arasi
Erzurum,Palandoken,Satilik,26_30_arasi,5,Kombi,bilinmiyor,yok,var,var,var,yok,var,var,yok,yok,yok,var,yok,yok,var,yok,yok,yok,yok,yok,yok,yok,yok,yok,yok,yok,var,yok,yok,yok,yok,kademe_5,kotu,bilinmiyor,bilinmiyor,150_200_m2,4_oda,orta_4_7_kat,1_banyo,yok,yok,dusuk,orta,orta,orta,yok,2_3_Milyon_TL_Arasi
Nigde,Merkez,Satilik,0,6,Kombi_Dogalgaz,bilinmiyor,yok,var,var,var,yok,var,yok,yok,var,yok,var,yok,yok,yok,yok,yok,yok,yok,yok,yok,yok,yok,yok,yok,yok,yok,yok,yok,yok,yok,kademe_5,bilinmiyor,normal,bilinmiyor,100_125_m2,3_oda,orta_4_7_kat,1_banyo,yok,yok,yok,dusuk,yok,dusuk,yok,3_4_Milyon_TL_Arasi
Hatay,Defne,Satilik,1_5_arasi,Yuksek_Giris,Kombi,bilinmiyor,yok,yok,yok,yok,yok,yok,yok,yok,yok,yok,yok,yok,yok,yok,yok,yok,yok,yok,yok,yok,yok,yok,yok,yok,yok,yok,var,yok,yok,yok,kademe_5,normal,bilinmiyor,bilinmiyor,150_200_m2,5_oda,orta_4_7_kat,2_banyo,yok,yok,yok,dusuk,yok,yok,yok,1_5_2_Milyon_TL_Arasi
Tokat,Niksar,Satilik,6_10_arasi,Yuksek_Giris,Kombi_Dogalgaz,bilinmiyor,yok,var,var,var,yok,yok,yok,var,yok,yok,var,var,yok,var,yok,yok,yok,yok,yok,yok,yok,yok,yok,yok,yok,yok,yok,yok,yok,yok,kademe_5,normal,bilinmiyor,kotu,125_150_m2,4_oda,orta_4_7_kat,2_banyo,dusuk,yok,yok,dusuk,orta,orta,yok,3_4_Milyon_TL_Arasi
Hatay,Iskenderun,Satilik,0,5,Klima,bilinmiyor,yok,var,yok,var,yok,var,var,var,var,yok,yok,yok,yok,yok,yok,yok,yok,yok,yok,yok,yok,yok,yok,yok,yok,yok,yok,yok,yok,yok,kademe_5,bilinmiyor,bilinmiyor,kotu,75_100_m2,3_oda,orta_4_7_kat,1_banyo,yok,yok,yok,dusuk,yok,dusuk,yok,2_3_Milyon_TL_Arasi
Hatay,Yayladagi,Satilik,0,Giris,Kombi,bilinmiyor,yok,var,var,var,yok,yok,var,var,var,yok,yok,yok,yok,yok,yok,yok,yok,yok,yok,yok,yok,yok,yok,yok,yok,var,yok,yok,yok,yok,kademe_5,normal,kotu,kotu,100_125_m2,3_oda,orta_4_7_kat,1_banyo,yok,yok,yok,dusuk,dusuk,yok,yok,2_3_Milyon_TL_Arasi
Hatay,Defne,Satilik,21_25_arasi,bilinmiyor,Kombi_Dogalgaz,bilinmiyor,yok,var,yok,var,yok,var,var,var,var,yok,var,var,yok,var,var,yok,yok,yok,yok,yok,yok,yok,var,yok,yok,var,yok,yok,yok,var,kademe_5,bilinmiyor,bilinmiyor,kotu,300_m2_ve_ustu,6_oda,orta_4_7_kat,3_banyo_ve_ustu,dusuk,dusuk,dusuk,dusuk,orta,yuksek,yok,10_Milyon_TL_Ustu
Nigde,Merkez,Satilik,1_5_arasi,11,Merkezi,bilinmiyor,yok,var,var,var,yok,yok,var,var,yok,yok,var,var,yok,yok,yok,yok,yok,yok,yok,yok,yok,yok,var,yok,yok,yok,yok,yok,yok,yok,kademe_5,iyi,iyi,bilinmiyor,150_200_m2,4_oda,yuksek_8_15_kat,2_banyo,yok,yok,dusuk,dusuk,yuksek,yuksek,yok,5_7_Bucuk_Milyon_TL_Arasi
Erzurum,Palandoken,Satilik,1_5_arasi,7,Merkezi,bilinmiyor,yok,var,var,var,yok,var,yok,yok,var,yok,var,var,yok,var,yok,yok,yok,yok,yok,yok,yok,yok,yok,yok,yok,var,yok,yok,yok,yok,kademe_5,normal,iyi,kotu,150_200_m2,5_oda,yuksek_8_15_kat,2_banyo,dusuk,dusuk,dusuk,dusuk,orta,yuksek,yok,5_7_Bucuk_Milyon_TL_Arasi
Hatay,Iskenderun,Satilik,16_20_arasi,1,Gunes_Enerjisi,bilinmiyor,yok,var,var,yok,yok,var,var,var,var,yok,var,yok,yok,yok,yok,yok,yok,yok,yok,yok,yok,yok,yok,yok,yok,yok,yok,yok,yok,yok,kademe_5,kotu,kotu,normal,125_150_m2,4_oda,orta_4_7_kat,1_banyo,yok,yok,yok,orta,yok,yuksek,yok,2_3_Milyon_TL_Arasi
Hatay,Arsuz,Satilik,6_10_arasi,7,Merkezi,bilinmiyor,yok,var,var,yok,yok,var,yok,var,var,yok,var,yok,yok,yok,yok,yok,yok,yok,yok,yok,yok,yok,yok,yok,yok,yok,yok,yok,yok,yok,kademe_5,kotu,normal,iyi,125_150_m2,4_oda,cok_yuksek_16_ustu_kat,2_banyo,yok,yok,yok,dusuk,yok,orta,yok,5_7_Bucuk_Milyon_TL_Arasi
Tokat,Merkez,Satilik,26_30_arasi,2,Kombi,bilinmiyor,yok,yok,yok,yok,yok,yok,yok,yok,yok,yok,yok,yok,yok,yok,yok,yok,yok,yok,yok,yok,yok,yok,yok,yok,yok,yok,yok,yok,yok,yok,kademe_5,iyi,bilinmiyor,kotu,100_125_m2,3_oda,orta_4_7_kat,1_banyo,yok,yok,yok,dusuk,yok,yok,yok,2_3_Milyon_TL_Arasi
Hatay,Dortyol,Satilik,16_20_arasi,Zemin,Kombi,bilinmiyor,yok,var,var,var,yok,var,yok,var,var,yok,var,var,yok,var,yok,yok,yok,yok,yok,yok,yok,yok,var,yok,yok,var,yok,yok,yok,yok,kademe_5,normal,bilinmiyor,bilinmiyor,150_200_m2,4_oda,orta_4_7_kat,2_banyo,dusuk,yok,dusuk,orta,orta,yuksek,yok,3_4_Milyon_TL_Arasi
Tokat,Merkez,Satilik,11_15_arasi,6,Kombi_Dogalgaz,bilinmiyor,yok,var,var,var,yok,yok,yok,yok,yok,yok,var,var,yok,yok,yok,yok,yok,yok,yok,yok,yok,yok,var,yok,yok,var,yok,yok,yok,yok,kademe_5,kotu,kotu,kotu,125_150_m2,4_oda,orta_4_7_kat,2_banyo,dusuk,yok,dusuk,orta,orta,orta,yok,4_5_Milyon_TL_Arasi
Kahramanmaras,Onikisubat,Satilik,0,8,Merkezi,bilinmiyor,yok,var,var,var,yok,var,var,yok,yok,yok,yok,yok,yok,yok,yok,yok,yok,yok,yok,yok,yok,yok,yok,yok,yok,yok,yok,yok,yok,yok,kademe_5,bilinmiyor,bilinmiyor,bilinmiyor,75_100_m2,2_oda,yuksek_8_15_kat,2_banyo,yok,yok,yok,dusuk,orta,dusuk,yok,3_4_Milyon_TL_Arasi
Hatay,Iskenderun,Satilik,26_30_arasi,Ara_Kat,Klima,bilinmiyor,yok,var,var,yok,yok,yok,yok,var,var,yok,var,yok,yok,yok,yok,yok,yok,yok,yok,yok,yok,yok,yok,yok,yok,var,yok,yok,yok,yok,kademe_5,normal,normal,bilinmiyor,150_200_m2,4_oda,orta_4_7_kat,1_banyo,dusuk,yok,yok,orta,orta,yuksek,yok,3_4_Milyon_TL_Arasi
Kahramanmaras,Onikisubat,Satilik,6_10_arasi,11,Merkezi,bilinmiyor,yok,var,yok,var,yok,var,var,var,yok,yok,yok,yok,yok,yok,yok,yok,yok,yok,yok,yok,yok,yok,yok,var,yok,var,yok,yok,yok,yok,kademe_5,iyi,bilinmiyor,bilinmiyor,200_300_m2,6_oda,yuksek_8_15_kat,2_banyo,dusuk,yok,dusuk,dusuk,yuksek,yuksek,yok,4_5_Milyon_TL_Arasi
Hatay,Dortyol,Satilik,16_20_arasi,1,isitma_yok,bilinmiyor,yok,var,yok,var,yok,var,var,var,var,yok,yok,yok,yok,yok,yok,yok,yok,yok,yok,yok,yok,yok,var,yok,yok,var,yok,yok,yok,yok,kademe_5,bilinmiyor,bilinmiyor,bilinmiyor,300_m2_ve_ustu,4_oda,alcak_1_3_kat,1_banyo,yok,yok,yok,orta,orta,yok,yok,2_3_Milyon_TL_Arasi
Hatay,Arsuz,Satilik,26_30_arasi,Villa_Kati,Klima,bilinmiyor,yok,var,yok,var,yok,var,var,yok,var,yok,yok,var,yok,yok,yok,yok,yok,yok,yok,yok,yok,var,yok,yok,yok,yok,yok,yok,yok,yok,kademe_5,bilinmiyor,kotu,bilinmiyor,200_300_m2,6_oda,orta_4_7_kat,3_banyo_ve_ustu,yok,dusuk,yok,dusuk,yok,yuksek,yok,7_Bucuk_10_Milyon_TL_Arasi
Bartin,Merkez,Satilik,21_25_arasi,3,Kombi_Dogalgaz,bilinmiyor,yok,var,yok,yok,yok,yok,yok,yok,yok,yok,yok,yok,yok,yok,yok,yok,yok,yok,yok,yok,yok,yok,yok,yok,yok,yok,yok,yok,yok,yok,kademe_5,normal,bilinmiyor,kotu,125_150_m2,4_oda,orta_4_7_kat,1_banyo,yok,yok,yok,dusuk,yok,yok,yok,3_4_Milyon_TL_Arasi
Kahramanmaras,Dulkadiroglu,Satilik,1_5_arasi,bilinmiyor,Kombi_Elektrik,bilinmiyor,yok,yok,yok,var,yok,yok,yok,yok,yok,yok,yok,yok,yok,yok,yok,yok,yok,yok,var,yok,yok,yok,yok,yok,yok,yok,yok,yok,var,yok,kademe_5,kotu,kotu,bilinmiyor,300_m2_ve_ustu,4_oda,alcak_1_3_kat,2_banyo,yok,yok,yok,dusuk,yok,dusuk,yok,10_Milyon_TL_Ustu
Hatay,Dortyol,Satilik,16_20_arasi,Ara_Kat,Klima,bilinmiyor,yok,yok,yok,yok,yok,var,var,yok,yok,yok,yok,yok,yok,yok,yok,yok,yok,yok,yok,yok,yok,yok,yok,yok,yok,yok,yok,yok,yok,yok,kademe_5,kotu,kotu,bilinmiyor,150_200_m2,4_oda,orta_4_7_kat,1_banyo,yok,yok,yok,dusuk,yok,dusuk,yok,2_3_Milyon_TL_Arasi
Osmaniye,Merkez,Satilik,0,1,Kombi,bilinmiyor,yok,var,var,var,yok,var,yok,var,yok,yok,yok,yok,yok,yok,yok,yok,yok,yok,yok,yok,yok,yok,yok,yok,yok,yok,yok,yok,yok,yok,kademe_5,normal,bilinmiyor,normal,150_200_m2,4_oda,orta_4_7_kat,2_banyo,yok,yok,yok,dusuk,yok,yok,yok,4_5_Milyon_TL_Arasi
Hatay,Defne,Satilik,1_5_arasi,Yuksek_Giris,Kombi_Dogalgaz,bilinmiyor,yok,var,var,yok,yok,var,var,var,yok,yok,var,yok,yok,var,yok,yok,yok,yok,yok,yok,yok,yok,yok,yok,yok,yok,yok,yok,yok,yok,kademe_5,iyi,kotu,iyi,150_200_m2,5_oda,orta_4_7_kat,1_banyo,yok,yok,yok,dusuk,yok,yuksek,yok,3_4_Milyon_TL_Arasi
Nigde,Merkez,Satilik,26_30_arasi,4,Kombi,bilinmiyor,yok,var,yok,var,yok,var,var,yok,yok,yok,yok,yok,yok,yok,yok,yok,yok,yok,yok,yok,yok,yok,yok,yok,yok,yok,yok,yok,yok,yok,kademe_5,bilinmiyor,bilinmiyor,bilinmiyor,125_150_m2,3_oda,orta_4_7_kat,1_banyo,yok,yok,yok,dusuk,yok,yok,yok,2_3_Milyon_TL_Arasi
Hatay,Reyhanli,Satilik,26_30_arasi,1,bilinmiyor,bilinmiyor,yok,yok,yok,yok,yok,yok,yok,yok,yok,yok,yok,yok,yok,yok,yok,yok,yok,yok,yok,yok,yok,yok,yok,yok,yok,yok,yok,yok,yok,yok,kademe_5,bilinmiyor,bilinmiyor,bilinmiyor,150_200_m2,4_oda,alcak_1_3_kat,1_banyo,yok,yok,yok,dusuk,yok,yok,yok,5_7_Bucuk_Milyon_TL_Arasi
Hatay,Belen,Satilik,0,bilinmiyor,Yerden_Isitma,bilinmiyor,yok,var,yok,var,yok,var,var,var,var,yok,var,var,yok,yok,var,yok,yok,yok,var,yok,yok,yok,yok,yok,yok,yok,var,var,yok,yok,kademe_5,iyi,normal,iyi,300_m2_ve_ustu,6_oda,alcak_1_3_kat,3_banyo_ve_ustu,dusuk,orta,yok,dusuk,yok,yuksek,yok,10_Milyon_TL_Ustu
Hatay,Defne,Satilik,1_5_arasi,1,isi_pompasi_elektrik,bilinmiyor,yok,var,var,var,yok,var,var,var,yok,yok,var,yok,yok,var,yok,yok,yok,yok,yok,yok,yok,var,var,yok,yok,var,yok,yok,yok,yok,kademe_5,normal,normal,bilinmiyor,125_150_m2,4_oda,orta_4_7_kat,1_banyo,dusuk,dusuk,yok,dusuk,yok,yuksek,yok,1_5_2_Milyon_TL_Arasi
Erzurum,Palandoken,Satilik,1_5_arasi,2,Merkezi,bilinmiyor,yok,yok,yok,var,yok,var,var,yok,yok,yok,yok,yok,yok,yok,yok,yok,yok,yok,yok,yok,yok,yok,yok,yok,yok,yok,yok,yok,yok,yok,kademe_5,normal,iyi,normal,200_300_m2,5_oda,yuksek_8_15_kat,2_banyo,yok,yok,yok,dusuk,yok,yok,yok,3_4_Milyon_TL_Arasi
Nigde,Merkez,Satilik,6_10_arasi,6,Kombi,bilinmiyor,yok,var,yok,var,yok,yok,yok,yok,yok,yok,yok,yok,yok,yok,yok,yok,yok,yok,yok,yok,yok,yok,yok,yok,yok,yok,yok,yok,yok,yok,kademe_5,bilinmiyor,normal,kotu,125_150_m2,4_oda,orta_4_7_kat,1_banyo,yok,yok,yok,dusuk,yok,yok,yok,3_4_Milyon_TL_Arasi
Hatay,Arsuz,Satilik,26_30_arasi,bilinmiyor,Klima,bilinmiyor,yok,yok,yok,var,yok,yok,var,var,var,yok,yok,yok,yok,yok,yok,yok,yok,yok,var,yok,yok,var,yok,yok,yok,yok,yok,yok,yok,var,kademe_5,iyi,kotu,bilinmiyor,200_300_m2,5_oda,orta_4_7_kat,2_banyo,dusuk,yok,yok,dusuk,yok,dusuk,yok,10_Milyon_TL_Ustu
Hatay,Iskenderun,Satilik,6_10_arasi,6,Kombi_Dogalgaz,bilinmiyor,yok,yok,var,var,yok,yok,yok,yok,yok,yok,yok,yok,yok,yok,yok,yok,yok,yok,yok,yok,yok,yok,yok,yok,yok,yok,yok,yok,yok,yok,kademe_5,iyi,iyi,normal,75_100_m2,2_oda,yuksek_8_15_kat,1_banyo,yok,yok,yok,dusuk,yok,yok,yok,2_3_Milyon_TL_Arasi
Yozgat,Merkez,Satilik,1_5_arasi,1,Kombi_Dogalgaz,bilinmiyor,yok,var,var,var,yok,yok,yok,yok,yok,yok,yok,yok,yok,yok,yok,yok,yok,yok,yok,yok,yok,yok,yok,yok,yok,var,yok,yok,yok,yok,kademe_5,normal,normal,kotu,75_100_m2,3_oda,orta_4_7_kat,1_banyo,yok,yok,yok,dusuk,yok,yuksek,yok,2_3_Milyon_TL_Arasi
Hatay,Arsuz,Satilik,0,3,belirtilmemis_elektrik,bilinmiyor,yok,var,var,yok,yok,yok,yok,yok,yok,yok,var,var,yok,var,yok,yok,yok,yok,yok,yok,yok,var,var,yok,yok,var,yok,yok,yok,yok,kademe_5,normal,bilinmiyor,normal,75_100_m2,7_oda_ve_ustu,orta_4_7_kat,2_banyo,dusuk,yok,yok,dusuk,dusuk,yuksek,yok,4_5_Milyon_TL_Arasi
Hatay,Arsuz,Satilik,0,bilinmiyor,Yerden_Isitma,bilinmiyor,yok,yok,yok,var,yok,var,var,var,var,yok,var,var,yok,var,yok,yok,yok,yok,var,yok,yok,yok,yok,yok,yok,yok,yok,yok,yok,var,kademe_5,bilinmiyor,normal,bilinmiyor,300_m2_ve_ustu,5_oda,alcak_1_3_kat,3_banyo_ve_ustu,dusuk,dusuk,yok,orta,dusuk,yuksek,yok,10_Milyon_TL_Ustu
Hatay,Payas,Satilik,11_15_arasi,1,bilinmiyor,bilinmiyor,yok,var,yok,yok,yok,yok,yok,yok,yok,yok,yok,yok,yok,yok,yok,yok,yok,yok,yok,yok,yok,yok,yok,yok,yok,yok,yok,yok,yok,yok,kademe_5,bilinmiyor,bilinmiyor,bilinmiyor,100_125_m2,4_oda,alcak_1_3_kat,1_banyo,yok,yok,yok,dusuk,yok,yok,yok,3_4_Milyon_TL_Arasi
Hatay,Iskenderun,Satilik,6_10_arasi,2,Klima,bilinmiyor,yok,yok,var,var,var,var,yok,var,var,yok,var,yok,yok,yok,yok,yok,yok,yok,yok,yok,yok,yok,yok,yok,yok,var,yok,yok,yok,yok,kademe_5,normal,normal,normal,0_50_m2,2_oda,orta_4_7_kat,1_banyo,yok,yok,dusuk,dusuk,orta,yuksek,yok,1_5_2_Milyon_TL_Arasi
Hatay,Antakya,Satilik,0,Yuksek_Giris,Merkezi,bilinmiyor,yok,yok,yok,yok,yok,yok,yok,yok,yok,yok,yok,yok,yok,yok,yok,yok,yok,yok,yok,yok,yok,yok,yok,yok,yok,yok,yok,yok,yok,yok,kademe_5,iyi,normal,bilinmiyor,125_150_m2,4_oda,orta_4_7_kat,1_banyo,yok,yok,yok,dusuk,yok,yok,yok,1_5_Milyon_TL_Alti
Tokat,Merkez,Satilik,31_ve_uzeri,2,Kombi_Dogalgaz,bilinmiyor,yok,var,yok,yok,yok,var,var,yok,yok,yok,var,yok,yok,var,yok,yok,yok,yok,yok,yok,yok,yok,yok,yok,yok,yok,yok,yok,yok,yok,kademe_5,iyi,kotu,bilinmiyor,125_150_m2,3_oda,orta_4_7_kat,1_banyo,yok,yok,yok,dusuk,dusuk,dusuk,yok,2_3_Milyon_TL_Arasi
Hatay,Yayladagi,Satilik,1_5_arasi,2,Kombi,bilinmiyor,yok,var,var,var,yok,var,var,var,yok,yok,yok,yok,yok,yok,yok,yok,yok,yok,yok,yok,var,yok,var,yok,yok,var,yok,yok,yok,yok,kademe_5,iyi,normal,kotu,100_125_m2,3_oda,orta_4_7_kat,1_banyo,yok,yok,dusuk,orta,yuksek,dusuk,yok,2_3_Milyon_TL_Arasi
Osmaniye,Kadirli,Satilik,1_5_arasi,Bahce,isitma_yok,bilinmiyor,yok,var,yok,yok,var,var,var,var,var,yok,var,var,yok,yok,yok,yok,yok,yok,yok,yok,yok,yok,var,yok,yok,var,yok,yok,yok,var,kademe_5,normal,bilinmiyor,kotu,300_m2_ve_ustu,6_oda,bilinmiyor,3_banyo_ve_ustu,yok,dusuk,dusuk,orta,orta,yuksek,yok,7_Bucuk_10_Milyon_TL_Arasi
Hatay,Payas,Satilik,0,Ara_Kat,Kombi_Dogalgaz,bilinmiyor,yok,yok,var,var,yok,var,var,yok,var,yok,var,var,yok,yok,yok,yok,yok,yok,yok,yok,yok,var,var,yok,yok,yok,yok,yok,yok,yok,kademe_5,iyi,bilinmiyor,bilinmiyor,200_300_m2,5_oda,orta_4_7_kat,2_banyo,dusuk,dusuk,yok,dusuk,orta,orta,yok,5_7_Bucuk_Milyon_TL_Arasi
Tokat,Merkez,Satilik,26_30_arasi,3,Kombi,bilinmiyor,yok,var,var,yok,yok,yok,var,yok,var,yok,var,yok,yok,var,yok,yok,yok,yok,yok,yok,yok,yok,yok,yok,yok,var,yok,yok,yok,yok,kademe_5,iyi,bilinmiyor,bilinmiyor,100_125_m2,3_oda,orta_4_7_kat,1_banyo,yok,yok,dusuk,dusuk,orta,orta,yok,3_4_Milyon_TL_Arasi
Hatay,Arsuz,Satilik,26_30_arasi,bilinmiyor,Klima,bilinmiyor,yok,var,yok,var,var,var,var,yok,yok,yok,yok,yok,yok,yok,yok,yok,yok,yok,yok,yok,yok,var,yok,yok,yok,yok,yok,yok,yok,var,kademe_5,normal,kotu,bilinmiyor,200_300_m2,6_oda,orta_4_7_kat,3_banyo_ve_ustu,yok,yok,yok,dusuk,yok,orta,yok,5_7_Bucuk_Milyon_TL_Arasi
Hatay,Iskenderun,Satilik,1_5_arasi,En_Ust_Kat,Kombi_Dogalgaz,bilinmiyor,yok,var,var,yok,yok,yok,yok,yok,yok,yok,var,var,yok,var,var,yok,yok,yok,yok,yok,yok,var,var,yok,yok,var,yok,yok,var,yok,kademe_5,bilinmiyor,bilinmiyor,bilinmiyor,200_300_m2,4_oda,orta_4_7_kat,3_banyo_ve_ustu,dusuk,dusuk,yok,dusuk,yok,yuksek,yok,10_Milyon_TL_Ustu
Hatay,Iskenderun,Satilik,1_5_arasi,3,Klima,bilinmiyor,yok,var,var,var,yok,yok,var,var,var,yok,var,yok,yok,yok,yok,yok,yok,yok,yok,yok,yok,yok,yok,yok,yok,var,var,yok,yok,yok,kademe_5,kotu,normal,bilinmiyor,50_75_m2,3_oda,orta_4_7_kat,1_banyo,dusuk,dusuk,yok,dusuk,yok,yuksek,yok,3_4_Milyon_TL_Arasi
Kahramanmaras,Onikisubat,Satilik,16_20_arasi,bilinmiyor,Soba,bilinmiyor,yok,yok,yok,yok,yok,yok,yok,var,var,yok,yok,yok,yok,yok,yok,yok,yok,yok,yok,yok,yok,yok,yok,yok,yok,yok,yok,yok,yok,yok,kademe_5,bilinmiyor,bilinmiyor,bilinmiyor,125_150_m2,6_oda,alcak_1_3_kat,2_banyo,yok,yok,yok,dusuk,yok,yok,yok,1_5_Milyon_TL_Alti
Hatay,Antakya,Satilik,0,1,isitma_yok,bilinmiyor,yok,var,var,var,yok,yok,yok,yok,yok,yok,yok,yok,yok,yok,yok,yok,yok,yok,yok,yok,yok,yok,var,yok,yok,yok,yok,yok,yok,yok,kademe_5,bilinmiyor,bilinmiyor,bilinmiyor,300_m2_ve_ustu,6_oda,alcak_1_3_kat,2_banyo,yok,yok,yok,orta,dusuk,yok,yok,3_4_Milyon_TL_Arasi
Kahramanmaras,Onikisubat,Satilik,1_5_arasi,1,Merkezi,bilinmiyor,yok,var,yok,var,yok,var,yok,var,var,yok,var,var,yok,var,yok,yok,yok,yok,var,yok,yok,yok,yok,yok,yok,var,yok,yok,yok,yok,kademe_5,iyi,normal,bilinmiyor,300_m2_ve_ustu,6_oda,yuksek_8_15_kat,2_banyo,dusuk,orta,yok,dusuk,yok,yuksek,yok,10_Milyon_TL_Ustu
Hatay,Antakya,Satilik,1_5_arasi,2,Kombi,bilinmiyor,yok,var,var,var,yok,yok,yok,yok,yok,yok,yok,yok,yok,yok,yok,yok,yok,yok,yok,yok,yok,yok,yok,yok,yok,yok,yok,yok,yok,yok,kademe_5,kotu,kotu,kotu,150_200_m2,4_oda,orta_4_7_kat,1_banyo,yok,yok,yok,dusuk,yok,dusuk,yok,3_4_Milyon_TL_Arasi
Hatay,Arsuz,Satilik,1_5_arasi,Bahce,Klima,bilinmiyor,yok,yok,yok,yok,yok,yok,var,var,var,yok,yok,yok,yok,var,yok,yok,yok,var,yok,yok,yok,yok,var,yok,yok,var,yok,yok,yok,yok,kademe_5,normal,normal,bilinmiyor,100_125_m2,2_oda,orta_4_7_kat,1_banyo,yok,dusuk,yok,orta,orta,yuksek,yok,3_4_Milyon_TL_Arasi
Hatay,Belen,Satilik,16_20_arasi,Bahce,Soba,bilinmiyor,yok,var,yok,yok,yok,var,var,var,var,yok,yok,yok,yok,yok,yok,yok,yok,yok,yok,yok,yok,yok,yok,yok,yok,yok,yok,yok,yok,yok,kademe_5,bilinmiyor,bilinmiyor,kotu,300_m2_ve_ustu,7_oda_ve_ustu,bilinmiyor,3_banyo_ve_ustu,yok,yok,yok,dusuk,yok,yok,yok,10_Milyon_TL_Ustu
Hatay,Arsuz,Satilik,1_5_arasi,8,Kombi_Dogalgaz,bilinmiyor,yok,var,var,var,yok,var,yok,yok,var,yok,var,var,yok,var,yok,yok,yok,var,var,yok,yok,var,yok,yok,yok,var,var,yok,var,yok,kademe_5,iyi,iyi,bilinmiyor,200_300_m2,5_oda,yuksek_8_15_kat,3_banyo_ve_ustu,orta,dusuk,yok,dusuk,dusuk,yuksek,dusuk,10_Milyon_TL_Ustu
Osmaniye,Merkez,Satilik,21_25_arasi,3,Kombi_Dogalgaz,bilinmiyor,yok,var,var,var,yok,var,var,yok,var,yok,yok,var,yok,yok,yok,yok,yok,yok,yok,yok,yok,yok,var,yok,yok,var,yok,yok,yok,yok,kademe_5,iyi,bilinmiyor,bilinmiyor,150_200_m2,5_oda,orta_4_7_kat,1_banyo,dusuk,yok,dusuk,orta,orta,yuksek,yok,3_4_Milyon_TL_Arasi
Hatay,Arsuz,Satilik,1_5_arasi,En_Ust_Kat,Klima,bilinmiyor,yok,var,var,var,yok,var,var,var,var,yok,yok,yok,yok,yok,yok,yok,yok,yok,yok,yok,yok,yok,yok,yok,yok,yok,yok,yok,yok,yok,kademe_5,bilinmiyor,bilinmiyor,bilinmiyor,75_100_m2,3_oda,orta_4_7_kat,1_banyo,yok,yok,yok,dusuk,yok,dusuk,yok,3_4_Milyon_TL_Arasi
Erzurum,Horasan,Satilik,6_10_arasi,5,Kombi,bilinmiyor,yok,yok,yok,yok,yok,yok,yok,yok,yok,yok,yok,yok,yok,yok,yok,yok,yok,yok,yok,yok,yok,yok,yok,yok,yok,yok,yok,yok,yok,yok,kademe_5,normal,bilinmiyor,bilinmiyor,200_300_m2,7_oda_ve_ustu,yuksek_8_15_kat,1_banyo,yok,yok,yok,dusuk,yok,yok,yok,3_4_Milyon_TL_Arasi
Hatay,Antakya,Satilik,1_5_arasi,3,Klima,bilinmiyor,yok,var,yok,yok,yok,var,var,yok,var,yok,var,yok,yok,var,yok,yok,yok,yok,yok,yok,yok,yok,var,yok,yok,yok,var,yok,yok,yok,kademe_5,normal,normal,bilinmiyor,200_300_m2,5_oda,orta_4_7_kat,2_banyo,yok,yok,yok,dusuk,dusuk,orta,yok,2_3_Milyon_TL_Arasi
Hatay,Arsuz,Satilik,6_10_arasi,4,Klima,bilinmiyor,yok,var,var,yok,yok,yok,yok,yok,yok,yok,var,yok,yok,yok,yok,yok,yok,yok,yok,yok,yok,var,yok,yok,yok,yok,yok,yok,yok,yok,kademe_5,iyi,bilinmiyor,bilinmiyor,100_125_m2,3_oda,orta_4_7_kat,1_banyo,yok,yok,yok,dusuk,yok,dusuk,yok,2_3_Milyon_TL_Arasi
Hatay,Defne,Satilik,1_5_arasi,bilinmiyor,Kombi_Dogalgaz,bilinmiyor,yok,var,yok,var,var,var,var,var,var,yok,var,yok,yok,var,yok,yok,yok,yok,yok,yok,yok,yok,var,yok,yok,var,yok,yok,yok,yok,kademe_5,bilinmiyor,normal,bilinmiyor,150_200_m2,4_oda,alcak_1_3_kat,1_banyo,dusuk,dusuk,yok,dusuk,yok,yuksek,yok,7_Bucuk_10_Milyon_TL_Arasi
Hatay,Arsuz,Satilik,31_ve_uzeri,bilinmiyor,isitma_yok,bilinmiyor,yok,yok,yok,yok,yok,yok,yok,yok,yok,yok,yok,yok,yok,yok,yok,yok,yok,yok,yok,yok,yok,yok,yok,yok,yok,yok,yok,yok,yok,var,kademe_5,iyi,bilinmiyor,bilinmiyor,150_200_m2,5_oda,orta_4_7_kat,2_banyo,yok,yok,yok,dusuk,yok,yok,yok,10_Milyon_TL_Ustu
Nigde,Merkez,Satilik,0,3,Kombi_Dogalgaz,bilinmiyor,yok,var,var,var,yok,yok,var,var,var,yok,var,var,yok,var,yok,yok,yok,yok,yok,yok,yok,yok,yok,yok,yok,var,yok,yok,yok,yok,kademe_5,bilinmiyor,iyi,bilinmiyor,150_200_m2,4_oda,yuksek_8_15_kat,2_banyo,dusuk,dusuk,yok,dusuk,orta,yuksek,yok,5_7_Bucuk_Milyon_TL_Arasi
Hatay,Iskenderun,Satilik,6_10_arasi,Yuksek_Giris,Kombi_Dogalgaz,bilinmiyor,yok,var,var,var,yok,yok,yok,yok,yok,yok,var,var,yok,yok,yok,yok,yok,yok,yok,yok,yok,yok,yok,yok,yok,yok,yok,yok,yok,yok,kademe_5,bilinmiyor,bilinmiyor,bilinmiyor,200_300_m2,4_oda,yuksek_8_15_kat,2_banyo,dusuk,dusuk,yok,yok,yok,orta,yok,3_4_Milyon_TL_Arasi
Tokat,Merkez,Satilik,0,Ara_Kat,Kombi_Dogalgaz,bilinmiyor,yok,var,var,yok,yok,var,var,var,var,yok,var,var,yok,yok,yok,yok,yok,yok,yok,yok,yok,yok,yok,yok,yok,var,yok,yok,yok,yok,kademe_5,iyi,normal,bilinmiyor,150_200_m2,4_oda,orta_4_7_kat,1_banyo,dusuk,dusuk,yok,dusuk,orta,orta,yok,5_7_Bucuk_Milyon_TL_Arasi
Hatay,Iskenderun,Satilik,1_5_arasi,Kot_2,Klima,bilinmiyor,yok,var,var,yok,var,yok,var,var,yok,yok,var,yok,yok,yok,yok,yok,yok,var,yok,yok,yok,yok,var,yok,yok,yok,yok,yok,yok,yok,kademe_5,kotu,normal,bilinmiyor,0_50_m2,2_oda,orta_4_7_kat,1_banyo,yok,yok,yok,dusuk,dusuk,orta,dusuk,2_3_Milyon_TL_Arasi
Nigde,Merkez,Satilik,21_25_arasi,3,Kombi,bilinmiyor,yok,var,var,var,yok,var,var,var,yok,yok,var,yok,yok,yok,yok,yok,yok,yok,yok,yok,yok,yok,var,yok,yok,var,yok,yok,yok,yok,kademe_5,bilinmiyor,bilinmiyor,bilinmiyor,125_150_m2,4_oda,orta_4_7_kat,1_banyo,yok,yok,yok,dusuk,orta,orta,yok,2_3_Milyon_TL_Arasi
Hatay,Iskenderun,Satilik,6_10_arasi,3,Klima,bilinmiyor,yok,var,var,yok,yok,yok,yok,var,yok,yok,var,yok,yok,var,yok,yok,yok,yok,yok,yok,yok,yok,yok,yok,yok,yok,yok,yok,yok,yok,kademe_5,normal,normal,bilinmiyor,0_50_m2,2_oda,orta_4_7_kat,1_banyo,yok,dusuk,yok,orta,dusuk,orta,yok,1_5_2_Milyon_TL_Arasi
Tokat,Niksar,Satilik,6_10_arasi,7,Merkezi,bilinmiyor,yok,var,var,var,yok,yok,yok,yok,yok,yok,yok,yok,yok,var,yok,yok,yok,yok,yok,yok,yok,yok,var,var,yok,var,yok,yok,yok,yok,kademe_5,iyi,bilinmiyor,normal,75_100_m2,3_oda,yuksek_8_15_kat,1_banyo,dusuk,yok,yok,dusuk,yok,orta,yok,2_3_Milyon_TL_Arasi
Hatay,Dortyol,Satilik,16_20_arasi,Bahce,Kombi,bilinmiyor,yok,var,yok,var,yok,var,var,var,var,yok,var,var,yok,yok,yok,yok,yok,yok,yok,yok,yok,yok,yok,yok,yok,var,var,yok,yok,yok,kademe_5,bilinmiyor,bilinmiyor,bilinmiyor,300_m2_ve_ustu,7_oda_ve_ustu,alcak_1_3_kat,2_banyo,yok,dusuk,dusuk,dusuk,orta,yuksek,yok,10_Milyon_TL_Ustu
Hatay,Dortyol,Satilik,26_30_arasi,4,Gunes_Enerjisi,bilinmiyor,yok,var,yok,var,yok,yok,var,var,yok,yok,yok,yok,yok,yok,yok,yok,yok,yok,yok,yok,yok,yok,var,yok,yok,var,yok,yok,yok,yok,kademe_5,bilinmiyor,normal,bilinmiyor,150_200_m2,4_oda,orta_4_7_kat,1_banyo,yok,yok,dusuk,orta,yuksek,dusuk,yok,2_3_Milyon_TL_Arasi
Nigde,Merkez,Satilik,0,5,Kombi_Dogalgaz,bilinmiyor,yok,var,var,var,yok,var,var,yok,var,yok,yok,yok,yok,yok,yok,yok,yok,yok,yok,yok,yok,yok,yok,yok,yok,yok,yok,yok,yok,yok,kademe_5,iyi,iyi,bilinmiyor,125_150_m2,4_oda,yuksek_8_15_kat,2_banyo,yok,yok,yok,dusuk,yok,yok,yok,5_7_Bucuk_Milyon_TL_Arasi
Hatay,Iskenderun,Satilik,0,Yuksek_Giris,Kombi_Dogalgaz,bilinmiyor,yok,var,var,var,yok,yok,yok,yok,yok,yok,var,var,yok,yok,yok,yok,yok,var,var,yok,yok,yok,yok,yok,yok,yok,yok,yok,yok,yok,kademe_5,iyi,bilinmiyor,bilinmiyor,125_150_m2,4_oda,orta_4_7_kat,2_banyo,dusuk,yok,dusuk,dusuk,yok,orta,yok,5_7_Bucuk_Milyon_TL_Arasi
Tokat,Merkez,Satilik,11_15_arasi,9,Kombi,bilinmiyor,yok,var,var,var,yok,var,yok,var,yok,yok,yok,yok,yok,yok,yok,yok,yok,yok,yok,yok,yok,yok,yok,yok,yok,var,yok,yok,yok,yok,kademe_5,bilinmiyor,kotu,normal,150_200_m2,4_oda,yuksek_8_15_kat,2_banyo,yok,yok,yok,dusuk,yok,yok,yok,5_7_Bucuk_Milyon_TL_Arasi
Hatay,Antakya,Satilik,1_5_arasi,3,Kombi_Dogalgaz,bilinmiyor,yok,var,var,var,yok,var,var,var,yok,yok,var,yok,yok,var,yok,yok,yok,var,yok,yok,yok,yok,var,yok,yok,var,yok,yok,yok,yok,kademe_5,iyi,iyi,bilinmiyor,100_125_m2,3_oda,orta_4_7_kat,1_banyo,dusuk,dusuk,yok,orta,orta,yuksek,yok,2_3_Milyon_TL_Arasi
Hatay,Erzin,Satilik,11_15_arasi,Bahce,Klima,bilinmiyor,yok,var,yok,var,yok,var,var,var,var,yok,yok,yok,yok,yok,yok,yok,yok,yok,yok,yok,yok,yok,var,yok,yok,yok,var,yok,yok,yok,kademe_5,normal,bilinmiyor,normal,300_m2_ve_ustu,4_oda,alcak_1_3_kat,2_banyo,yok,yok,yok,dusuk,yok,dusuk,yok,3_4_Milyon_TL_Arasi
Tokat,Merkez,Satilik,6_10_arasi,3,Kombi,bilinmiyor,yok,var,var,var,yok,var,yok,var,yok,yok,var,yok,yok,var,yok,yok,yok,yok,yok,yok,yok,yok,yok,yok,yok,var,yok,yok,yok,yok,kademe_5,kotu,kotu,bilinmiyor,100_125_m2,3_oda,orta_4_7_kat,1_banyo,yok,yok,yok,dusuk,orta,yuksek,yok,3_4_Milyon_TL_Arasi
Tokat,Merkez,Satilik,31_ve_uzeri,4,Kombi_Dogalgaz,bilinmiyor,yok,var,var,var,yok,yok,var,yok,yok,yok,var,yok,yok,yok,yok,yok,yok,yok,yok,yok,yok,yok,yok,yok,yok,yok,yok,yok,yok,yok,kademe_5,iyi,normal,bilinmiyor,125_150_m2,4_oda,orta_4_7_kat,1_banyo,yok,yok,yok,dusuk,orta,yok,yok,3_4_Milyon_TL_Arasi
Erzurum,Yakutiye,Satilik,1_5_arasi,7,Merkezi,bilinmiyor,yok,var,var,var,yok,var,yok,yok,yok,yok,var,var,yok,var,yok,yok,yok,yok,yok,yok,yok,yok,var,yok,yok,var,yok,yok,yok,yok,kademe_5,bilinmiyor,iyi,bilinmiyor,200_300_m2,5_oda,yuksek_8_15_kat,2_banyo,dusuk,dusuk,dusuk,orta,orta,yuksek,yok,7_Bucuk_10_Milyon_TL_Arasi
Kahramanmaras,Onikisubat,Satilik,1_5_arasi,Yuksek_Giris,Kombi,bilinmiyor,yok,var,var,var,yok,var,yok,yok,var,yok,var,yok,yok,yok,yok,yok,yok,yok,yok,yok,yok,yok,yok,yok,yok,var,yok,yok,yok,yok,kademe_5,bilinmiyor,normal,bilinmiyor,100_125_m2,3_oda,orta_4_7_kat,1_banyo,yok,yok,yok,dusuk,dusuk,dusuk,yok,2_3_Milyon_TL_Arasi
Kahramanmaras,Onikisubat,Satilik,6_10_arasi,3,Kombi,bilinmiyor,yok,var,yok,var,yok,yok,var,var,var,yok,var,var,yok,yok,yok,yok,yok,yok,yok,yok,yok,yok,var,yok,yok,var,yok,yok,yok,yok,kademe_5,normal,normal,iyi,150_200_m2,5_oda,yuksek_8_15_kat,2_banyo,yok,yok,dusuk,dusuk,orta,yuksek,yok,5_7_Bucuk_Milyon_TL_Arasi
Hatay,Defne,Satilik,0,Bahce,Kombi,bilinmiyor,yok,yok,yok,var,yok,var,var,var,var,yok,var,var,yok,var,yok,yok,yok,yok,yok,yok,yok,yok,var,yok,yok,var,yok,yok,yok,var,kademe_5,normal,iyi,iyi,300_m2_ve_ustu,7_oda_ve_ustu,orta_4_7_kat,3_banyo_ve_ustu,yok,dusuk,yok,orta,dusuk,yuksek,yok,10_Milyon_TL_Ustu
Hatay,Antakya,Satilik,0,4,Kombi_Dogalgaz,bilinmiyor,yok,var,var,var,yok,var,var,var,yok,yok,var,var,yok,var,yok,yok,yok,yok,yok,yok,yok,yok,var,yok,yok,var,yok,yok,yok,yok,kademe_5,iyi,bilinmiyor,bilinmiyor,150_200_m2,4_oda,orta_4_7_kat,2_banyo,dusuk,dusuk,dusuk,orta,orta,yuksek,yok,5_7_Bucuk_Milyon_TL_Arasi
Hatay,Defne,Satilik,0,2,Kombi_Dogalgaz,bilinmiyor,yok,var,var,var,yok,var,var,var,var,yok,yok,yok,yok,yok,yok,yok,yok,yok,yok,yok,yok,yok,yok,yok,yok,yok,yok,yok,yok,yok,kademe_5,kotu,bilinmiyor,kotu,125_150_m2,4_oda,orta_4_7_kat,1_banyo,yok,yok,yok,dusuk,yok,yok,yok,3_4_Milyon_TL_Arasi
Hatay,Iskenderun,Satilik,6_10_arasi,4,belirtilmemis_elektrik,bilinmiyor,yok,var,var,yok,yok,var,var,yok,yok,yok,var,yok,yok,var,yok,yok,yok,yok,yok,yok,yok,var,var,yok,yok,var,var,yok,var,yok,kademe_5,kotu,normal,bilinmiyor,200_300_m2,6_oda,orta_4_7_kat,2_banyo,dusuk,dusuk,yok,orta,orta,yuksek,yok,4_5_Milyon_TL_Arasi
Hatay,Iskenderun,Satilik,11_15_arasi,2,Klima,bilinmiyor,yok,yok,var,yok,yok,yok,var,yok,yok,yok,var,yok,yok,yok,yok,yok,yok,yok,yok,yok,yok,yok,yok,yok,yok,yok,yok,yok,yok,yok,kademe_5,iyi,iyi,bilinmiyor,0_50_m2,2_oda,orta_4_7_kat,1_banyo,yok,yok,yok,orta,dusuk,orta,yok,1_5_2_Milyon_TL_Arasi
Tokat,Merkez,Satilik,11_15_arasi,3,Kombi,bilinmiyor,yok,var,var,var,yok,yok,var,var,yok,yok,var,yok,yok,var,yok,yok,yok,yok,yok,yok,yok,yok,yok,yok,yok,yok,var,yok,yok,yok,kademe_5,normal,normal,bilinmiyor,200_300_m2,5_oda,orta_4_7_kat,1_banyo,yok,yok,dusuk,yok,orta,orta,yok,5_7_Bucuk_Milyon_TL_Arasi
Kahramanmaras,Dulkadiroglu,Satilik,6_10_arasi,4,Kombi,bilinmiyor,yok,var,yok,var,yok,var,var,var,yok,yok,yok,yok,yok,yok,yok,yok,yok,yok,yok,yok,yok,yok,yok,yok,yok,yok,yok,yok,yok,yok,kademe_5,normal,normal,normal,150_200_m2,5_oda,orta_4_7_kat,2_banyo,yok,yok,yok,dusuk,yok,yok,yok,4_5_Milyon_TL_Arasi
Nigde,Merkez,Satilik,16_20_arasi,4,Merkezi,bilinmiyor,yok,var,var,yok,yok,var,yok,var,var,yok,var,yok,yok,var,yok,yok,yok,yok,yok,yok,yok,yok,yok,yok,yok,yok,yok,yok,yok,yok,kademe_5,normal,normal,bilinmiyor,150_200_m2,4_oda,orta_4_7_kat,1_banyo,dusuk,dusuk,yok,dusuk,yok,yuksek,yok,3_4_Milyon_TL_Arasi
Hatay,Arsuz,Satilik,0,En_Ust_Kat,Kombi_Dogalgaz,bilinmiyor,yok,var,var,var,yok,var,var,var,var,yok,var,yok,yok,yok,yok,yok,yok,yok,yok,yok,yok,var,var,yok,yok,var,var,yok,var,yok,kademe_5,iyi,bilinmiyor,bilinmiyor,200_300_m2,6_oda,orta_4_7_kat,1_banyo,yok,dusuk,yok,dusuk,orta,yuksek,yok,5_7_Bucuk_Milyon_TL_Arasi
Hatay,Iskenderun,Satilik,1_5_arasi,4,Klima,bilinmiyor,yok,var,var,var,var,var,var,var,var,yok,var,yok,yok,yok,yok,yok,yok,yok,yok,yok,yok,yok,yok,yok,yok,var,yok,yok,yok,yok,kademe_5,normal,kotu,kotu,75_100_m2,3_oda,orta_4_7_kat,1_banyo,yok,yok,yok,dusuk,dusuk,yuksek,yok,2_3_Milyon_TL_Arasi
Hatay,Defne,Satilik,16_20_arasi,Bahce,Soba,bilinmiyor,yok,yok,yok,var,yok,var,var,var,var,yok,yok,yok,yok,yok,yok,yok,yok,yok,yok,yok,yok,yok,yok,yok,yok,yok,yok,yok,yok,yok,kademe_5,normal,kotu,bilinmiyor,150_200_m2,4_oda,orta_4_7_kat,1_banyo,yok,yok,yok,dusuk,yok,yok,yok,1_5_2_Milyon_TL_Arasi
Tokat,Niksar,Satilik,1_5_arasi,Ara_Kat,Kombi_Dogalgaz,bilinmiyor,yok,var,yok,yok,yok,yok,yok,yok,yok,yok,yok,yok,yok,yok,yok,yok,yok,yok,yok,yok,yok,yok,yok,yok,yok,yok,yok,yok,yok,yok,kademe_5,kotu,iyi,kotu,125_150_m2,4_oda,orta_4_7_kat,2_banyo,yok,yok,yok,dusuk,yok,yok,yok,4_5_Milyon_TL_Arasi
Tokat,Merkez,Satilik,6_10_arasi,5,Kombi,bilinmiyor,yok,var,var,var,yok,var,var,var,yok,yok,var,yok,yok,var,yok,yok,yok,yok,yok,yok,yok,yok,var,yok,yok,var,yok,yok,yok,yok,kademe_5,bilinmiyor,iyi,bilinmiyor,150_200_m2,5_oda,orta_4_7_kat,1_banyo,yok,yok,yok,dusuk,yuksek,orta,yok,5_7_Bucuk_Milyon_TL_Arasi
Tokat,Merkez,Satilik,0,bilinmiyor,Yerden_Isitma,bilinmiyor,yok,var,yok,var,yok,var,var,var,var,yok,var,var,yok,var,yok,yok,yok,yok,yok,yok,yok,yok,var,yok,yok,var,var,var,yok,yok,kademe_5,bilinmiyor,normal,kotu,200_300_m2,6_oda,alcak_1_3_kat,3_banyo_ve_ustu,yok,dusuk,yok,dusuk,yok,dusuk,yok,10_Milyon_TL_Ustu
Hatay,Iskenderun,Satilik,16_20_arasi,Giris,Gunes_Enerjisi,bilinmiyor,yok,var,yok,yok,yok,yok,var,var,var,yok,var,yok,yok,yok,yok,yok,yok,yok,yok,yok,yok,yok,yok,yok,yok,yok,yok,yok,yok,yok,kademe_5,normal,normal,kotu,125_150_m2,4_oda,orta_4_7_kat,1_banyo,yok,yok,yok,orta,yok,dusuk,yok,2_3_Milyon_TL_Arasi
Tokat,Merkez,Satilik,1_5_arasi,1,Kombi_Dogalgaz,bilinmiyor,yok,yok,var,var,yok,yok,var,var,yok,yok,var,yok,yok,var,yok,yok,yok,var,yok,yok,yok,yok,yok,yok,yok,var,yok,yok,yok,yok,kademe_5,iyi,iyi,normal,0_50_m2,2_oda,orta_4_7_kat,1_banyo,dusuk,yok,yok,dusuk,dusuk,yuksek,yok,2_3_Milyon_TL_Arasi
Tokat,Merkez,Satilik,1_5_arasi,4,Kombi_Dogalgaz,bilinmiyor,yok,var,yok,yok,yok,var,var,var,var,yok,yok,yok,yok,yok,yok,yok,yok,yok,yok,yok,yok,yok,yok,yok,yok,yok,yok,yok,yok,yok,kademe_5,iyi,normal,bilinmiyor,125_150_m2,4_oda,orta_4_7_kat,1_banyo,yok,yok,yok,dusuk,yok,yok,yok,5_7_Bucuk_Milyon_TL_Arasi
Kahramanmaras,Onikisubat,Satilik,6_10_arasi,Giris,Kombi_Dogalgaz,bilinmiyor,yok,var,var,var,yok,var,var,var,var,yok,var,var,yok,var,yok,yok,yok,yok,yok,yok,yok,yok,var,yok,yok,var,yok,yok,yok,yok,kademe_5,iyi,iyi,bilinmiyor,150_200_m2,5_oda,yuksek_8_15_kat,2_banyo,orta,orta,orta,orta,orta,yuksek,yok,3_4_Milyon_TL_Arasi
Nigde,Merkez,Satilik,6_10_arasi,3,Merkezi,bilinmiyor,yok,var,var,var,yok,var,yok,var,yok,yok,var,yok,yok,var,yok,yok,yok,yok,yok,yok,yok,yok,var,yok,yok,var,yok,yok,yok,yok,kademe_5,iyi,normal,bilinmiyor,125_150_m2,4_oda,orta_4_7_kat,1_banyo,dusuk,yok,yok,dusuk,dusuk,orta,yok,5_7_Bucuk_Milyon_TL_Arasi
Tokat,Niksar,Satilik,0,1,Kombi,bilinmiyor,yok,yok,yok,yok,yok,yok,yok,yok,yok,yok,yok,yok,yok,yok,yok,yok,yok,yok,yok,yok,yok,yok,yok,yok,yok,yok,yok,yok,yok,yok,kademe_5,kotu,bilinmiyor,kotu,125_150_m2,4_oda,orta_4_7_kat,2_banyo,yok,yok,yok,dusuk,yok,yok,yok,4_5_Milyon_TL_Arasi
Hatay,Belen,Satilik,21_25_arasi,bilinmiyor,Kombi_Dogalgaz,bilinmiyor,yok,var,yok,var,yok,var,var,var,var,yok,var,var,yok,var,yok,yok,yok,yok,yok,yok,yok,var,var,yok,yok,var,yok,yok,yok,var,kademe_5,iyi,bilinmiyor,kotu,200_300_m2,6_oda,orta_4_7_kat,2_banyo,yok,dusuk,dusuk,orta,dusuk,yuksek,yok,7_Bucuk_10_Milyon_TL_Arasi
Hatay,Defne,Satilik,1_5_arasi,4,Kombi_Dogalgaz,bilinmiyor,yok,var,var,yok,yok,yok,var,var,yok,yok,yok,yok,yok,yok,yok,yok,yok,yok,yok,yok,yok,yok,yok,yok,yok,yok,yok,yok,yok,yok,kademe_5,iyi,normal,bilinmiyor,200_300_m2,7_oda_ve_ustu,orta_4_7_kat,2_banyo,yok,yok,yok,dusuk,yok,yok,yok,3_4_Milyon_TL_Arasi
Hatay,Erzin,Satilik,1_5_arasi,Bodrum,Kombi,bilinmiyor,yok,var,yok,var,yok,var,yok,var,yok,yok,yok,yok,yok,yok,yok,yok,yok,yok,yok,yok,var,yok,var,var,yok,yok,yok,yok,yok,yok,kademe_5,iyi,iyi,bilinmiyor,150_200_m2,4_oda,orta_4_7_kat,1_banyo,yok,yok,yok,dusuk,yok,orta,yok,4_5_Milyon_TL_Arasi
Hatay,Arsuz,Satilik,11_15_arasi,Yuksek_Giris,Merkezi,bilinmiyor,yok,var,var,var,yok,yok,yok,yok,yok,yok,var,var,yok,var,yok,yok,yok,yok,var,yok,yok,yok,yok,yok,yok,yok,yok,yok,yok,yok,kademe_5,normal,kotu,bilinmiyor,150_200_m2,4_oda,yuksek_8_15_kat,2_banyo,dusuk,yok,yok,orta,yok,yuksek,yok,5_7_Bucuk_Milyon_TL_Arasi
Tokat,Merkez,Satilik,0,1,Klima,bilinmiyor,yok,yok,var,var,var,yok,yok,var,var,yok,var,yok,yok,var,yok,yok,yok,yok,yok,yok,yok,yok,yok,yok,yok,var,yok,yok,yok,yok,kademe_5,normal,normal,bilinmiyor,50_75_m2,2_oda,orta_4_7_kat,1_banyo,yok,yok,yok,dusuk,dusuk,yuksek,yok,2_3_Milyon_TL_Arasi
Hatay,Iskenderun,Satilik,0,3,Kombi,bilinmiyor,yok,var,var,var,yok,var,var,yok,yok,yok,var,var,yok,var,yok,yok,yok,yok,yok,yok,yok,yok,yok,yok,yok,var,yok,yok,var,yok,kademe_5,iyi,bilinmiyor,iyi,125_150_m2,4_oda,orta_4_7_kat,2_banyo,yok,yok,yok,orta,orta,yuksek,yok,5_7_Bucuk_Milyon_TL_Arasi
Hatay,Iskenderun,Satilik,6_10_arasi,Yuksek_Giris,Klima,bilinmiyor,yok,var,var,var,yok,var,var,yok,yok,yok,var,yok,yok,yok,yok,yok,yok,yok,yok,yok,yok,yok,yok,yok,yok,yok,yok,yok,yok,yok,kademe_5,normal,normal,iyi,100_125_m2,3_oda,orta_4_7_kat,1_banyo,dusuk,yok,yok,dusuk,dusuk,yuksek,yok,2_3_Milyon_TL_Arasi
Hatay,Iskenderun,Satilik,6_10_arasi,13,Kombi_Dogalgaz,bilinmiyor,yok,var,var,var,yok,var,var,yok,var,yok,var,var,yok,yok,yok,yok,yok,yok,yok,yok,yok,var,var,yok,yok,var,yok,yok,yok,yok,kademe_5,iyi,bilinmiyor,bilinmiyor,200_300_m2,4_oda,yuksek_8_15_kat,2_banyo,orta,dusuk,yok,dusuk,orta,yuksek,yok,7_Bucuk_10_Milyon_TL_Arasi
Hatay,Payas,Satilik,0,5,Kombi,bilinmiyor,yok,var,var,yok,yok,yok,yok,yok,yok,yok,yok,yok,yok,yok,yok,yok,yok,yok,yok,yok,yok,yok,yok,yok,yok,yok,yok,yok,yok,yok,kademe_5,bilinmiyor,iyi,iyi,150_200_m2,4_oda,orta_4_7_kat,2_banyo,yok,yok,yok,dusuk,yok,yok,yok,3_4_Milyon_TL_Arasi
Hatay,Arsuz,Satilik,6_10_arasi,8,Kombi_Dogalgaz,bilinmiyor,yok,var,var,yok,yok,var,var,var,var,yok,var,yok,yok,yok,yok,yok,yok,yok,yok,yok,yok,var,yok,yok,yok,yok,yok,yok,yok,yok,kademe_5,normal,kotu,iyi,100_125_m2,3_oda,yuksek_8_15_kat,2_banyo,dusuk,yok,yok,orta,dusuk,yuksek,yok,2_3_Milyon_TL_Arasi
Tokat,Niksar,Satilik,11_15_arasi,Ara_Kat,Dogalgaz_Sobasi,bilinmiyor,yok,yok,yok,var,yok,yok,yok,var,yok,yok,var,yok,yok,var,yok,yok,yok,var,yok,yok,yok,yok,var,yok,yok,var,yok,yok,yok,yok,kademe_5,kotu,normal,normal,150_200_m2,5_oda,orta_4_7_kat,1_banyo,yok,yok,yok,orta,orta,orta,yok,2_3_Milyon_TL_Arasi
Yozgat,Merkez,Satilik,0,4,Kombi_Dogalgaz,bilinmiyor,yok,var,var,var,var,yok,yok,yok,yok,yok,var,yok,yok,var,yok,yok,yok,yok,yok,yok,yok,yok,yok,yok,yok,var,yok,yok,yok,yok,kademe_5,kotu,normal,bilinmiyor,50_75_m2,3_oda,orta_4_7_kat,1_banyo,yok,yok,yok,dusuk,orta,yuksek,yok,2_3_Milyon_TL_Arasi
Hatay,Kirikhan,Satilik,0,2,Kombi,bilinmiyor,yok,var,var,var,yok,var,var,var,var,yok,var,yok,yok,yok,yok,yok,yok,yok,yok,yok,yok,yok,yok,yok,yok,yok,yok,yok,yok,yok,kademe_5,normal,bilinmiyor,kotu,125_150_m2,4_oda,orta_4_7_kat,2_banyo,yok,yok,yok,dusuk,yok,dusuk,yok,4_5_Milyon_TL_Arasi
Hatay,Defne,Satilik,0,Yuksek_Giris,Kombi_Dogalgaz,bilinmiyor,yok,yok,yok,var,yok,yok,var,var,yok,yok,yok,yok,yok,yok,yok,yok,yok,yok,yok,yok,yok,yok,yok,yok,yok,yok,yok,yok,yok,yok,kademe_5,normal,bilinmiyor,bilinmiyor,75_100_m2,3_oda,orta_4_7_kat,1_banyo,yok,yok,yok,dusuk,yok,yok,yok,3_4_Milyon_TL_Arasi
Tokat,Merkez,Satilik,16_20_arasi,6,Kombi,bilinmiyor,yok,var,var,var,yok,yok,yok,yok,yok,yok,yok,yok,yok,yok,yok,yok,yok,yok,yok,yok,yok,yok,yok,yok,yok,yok,yok,yok,yok,yok,kademe_5,kotu,bilinmiyor,kotu,75_100_m2,3_oda,yuksek_8_15_kat,1_banyo,yok,yok,yok,dusuk,yok,yok,yok,2_3_Milyon_TL_Arasi
Tokat,Merkez,Satilik,21_25_arasi,1,Kombi_Dogalgaz,bilinmiyor,yok,var,var,var,var,yok,yok,var,var,yok,var,yok,yok,var,yok,yok,yok,yok,yok,yok,yok,yok,var,yok,yok,var,yok,yok,yok,yok,kademe_5,bilinmiyor,bilinmiyor,bilinmiyor,100_125_m2,3_oda,orta_4_7_kat,1_banyo,yok,yok,yok,dusuk,dusuk,yuksek,yok,2_3_Milyon_TL_Arasi
Erzurum,Horasan,Satilik,0,6,Kombi,bilinmiyor,yok,var,var,var,yok,var,var,var,var,yok,var,yok,yok,var,yok,yok,yok,yok,yok,yok,yok,yok,yok,yok,yok,var,yok,yok,yok,yok,kademe_5,iyi,bilinmiyor,normal,125_150_m2,4_oda,orta_4_7_kat,1_banyo,dusuk,yok,dusuk,dusuk,yuksek,yuksek,yok,2_3_Milyon_TL_Arasi
Hatay,Arsuz,Satilik,6_10_arasi,2,belirtilmemis_elektrik,bilinmiyor,yok,yok,yok,yok,yok,var,yok,var,yok,yok,yok,var,yok,yok,yok,yok,yok,yok,yok,yok,yok,yok,yok,yok,yok,yok,yok,yok,yok,yok,kademe_5,iyi,iyi,bilinmiyor,75_100_m2,3_oda,orta_4_7_kat,1_banyo,yok,yok,yok,dusuk,yok,dusuk,yok,2_3_Milyon_TL_Arasi
Tokat,Merkez,Satilik,0,2,Kombi,bilinmiyor,yok,var,yok,var,yok,var,yok,yok,var,yok,var,yok,yok,var,yok,yok,yok,yok,yok,yok,yok,yok,yok,yok,yok,var,yok,yok,yok,yok,kademe_5,bilinmiyor,bilinmiyor,bilinmiyor,75_100_m2,2_oda,orta_4_7_kat,1_banyo,yok,yok,yok,dusuk,dusuk,yuksek,yok,3_4_Milyon_TL_Arasi
Hatay,Payas,Satilik,6_10_arasi,Bahce,Kombi,bilinmiyor,yok,var,var,var,yok,var,var,yok,var,yok,var,var,yok,yok,yok,yok,yok,yok,yok,yok,yok,yok,var,yok,yok,yok,yok,yok,yok,yok,kademe_5,bilinmiyor,kotu,bilinmiyor,125_150_m2,4_oda,orta_4_7_kat,2_banyo,dusuk,dusuk,dusuk,dusuk,orta,yuksek,yok,3_4_Milyon_TL_Arasi
Kahramanmaras,Dulkadiroglu,Satilik,0,1,Kombi,bilinmiyor,yok,var,yok,var,yok,var,var,var,yok,yok,var,yok,yok,yok,yok,yok,yok,yok,yok,yok,yok,yok,yok,yok,yok,yok,yok,yok,yok,yok,kademe_5,bilinmiyor,bilinmiyor,bilinmiyor,100_125_m2,3_oda,orta_4_7_kat,1_banyo,yok,yok,yok,dusuk,orta,orta,yok,2_3_Milyon_TL_Arasi
Hatay,Dortyol,Satilik,6_10_arasi,5,Kombi_Dogalgaz,bilinmiyor,yok,var,var,yok,yok,yok,yok,yok,yok,yok,var,yok,yok,yok,yok,yok,yok,yok,yok,yok,yok,yok,yok,yok,yok,yok,yok,yok,yok,yok,kademe_5,iyi,normal,kotu,150_200_m2,4_oda,orta_4_7_kat,2_banyo,yok,yok,yok,dusuk,yok,yok,yok,3_4_Milyon_TL_Arasi
Tokat,Merkez,Satilik,0,Giris,Kombi_Dogalgaz,bilinmiyor,yok,yok,var,var,yok,var,var,var,var,yok,var,yok,yok,var,yok,yok,yok,yok,yok,yok,yok,yok,yok,yok,yok,var,yok,yok,yok,yok,kademe_5,iyi,iyi,bilinmiyor,100_125_m2,3_oda,orta_4_7_kat,1_banyo,yok,yok,yok,dusuk,yok,orta,yok,3_4_Milyon_TL_Arasi
Nigde,Merkez,Satilik,6_10_arasi,6,Merkezi,bilinmiyor,yok,var,var,yok,yok,var,yok,yok,yok,yok,var,yok,yok,var,yok,yok,yok,yok,yok,yok,yok,yok,var,yok,yok,var,yok,yok,yok,yok,kademe_5,kotu,kotu,kotu,75_100_m2,3_oda,yuksek_8_15_kat,1_banyo,dusuk,yok,yok,dusuk,yuksek,yuksek,yok,3_4_Milyon_TL_Arasi
Hatay,Defne,Satilik,1_5_arasi,Bahce,Yerden_Isitma,bilinmiyor,yok,yok,yok,var,yok,var,var,var,var,yok,var,var,yok,yok,yok,yok,yok,yok,yok,yok,yok,yok,var,yok,yok,yok,yok,var,yok,yok,kademe_5,iyi,normal,iyi,300_m2_ve_ustu,6_oda,alcak_1_3_kat,2_banyo,dusuk,dusuk,dusuk,orta,dusuk,dusuk,yok,10_Milyon_TL_Ustu
Hatay,Defne,Satilik,6_10_arasi,2,Kombi,bilinmiyor,yok,var,yok,var,yok,yok,var,yok,var,yok,var,yok,yok,yok,yok,yok,yok,yok,yok,yok,yok,yok,var,yok,yok,yok,yok,yok,yok,yok,kademe_5,normal,normal,bilinmiyor,100_125_m2,3_oda,orta_4_7_kat,1_banyo,yok,dusuk,yok,orta,dusuk,orta,yok,2_3_Milyon_TL_Arasi
Bartin,Merkez,Satilik,0,1,Kombi,bilinmiyor,yok,var,var,var,yok,yok,yok,yok,yok,yok,yok,yok,yok,yok,yok,yok,yok,yok,yok,yok,yok,yok,yok,yok,yok,yok,yok,yok,yok,yok,kademe_5,bilinmiyor,bilinmiyor,bilinmiyor,50_75_m2,2_oda,orta_4_7_kat,1_banyo,yok,yok,yok,yok,yok,yok,yok,3_4_Milyon_TL_Arasi
Tokat,Merkez,Satilik,0,1,Kombi,bilinmiyor,yok,var,var,var,yok,yok,var,var,yok,yok,var,yok,yok,var,yok,yok,yok,yok,yok,yok,yok,yok,var,yok,yok,var,yok,yok,yok,yok,kademe_5,kotu,bilinmiyor,bilinmiyor,50_75_m2,2_oda,orta_4_7_kat,1_banyo,yok,yok,yok,dusuk,yok,yuksek,yok,3_4_Milyon_TL_Arasi
Kahramanmaras,Onikisubat,Satilik,26_30_arasi,2,Kombi_Dogalgaz,bilinmiyor,yok,var,var,var,yok,yok,yok,yok,yok,yok,yok,yok,yok,yok,yok,yok,yok,yok,yok,yok,yok,yok,yok,yok,yok,yok,yok,yok,yok,yok,kademe_5,iyi,kotu,kotu,100_125_m2,3_oda,orta_4_7_kat,1_banyo,yok,yok,yok,dusuk,yok,yok,yok,2_3_Milyon_TL_Arasi
Hatay,Dortyol,Satilik,6_10_arasi,4,Kombi_Elektrik,bilinmiyor,yok,var,var,var,yok,var,yok,yok,yok,yok,var,yok,yok,yok,yok,yok,yok,yok,yok,yok,yok,yok,yok,yok,yok,var,yok,yok,yok,yok,kademe_5,normal,normal,kotu,100_125_m2,3_oda,orta_4_7_kat,1_banyo,dusuk,yok,yok,dusuk,dusuk,orta,yok,2_3_Milyon_TL_Arasi
Tokat,Merkez,Satilik,31_ve_uzeri,2,Kombi_Dogalgaz,bilinmiyor,yok,var,var,var,yok,var,var,yok,yok,yok,var,yok,yok,var,yok,yok,yok,yok,yok,yok,yok,var,var,yok,yok,var,yok,yok,yok,yok,kademe_5,normal,bilinmiyor,kotu,100_125_m2,3_oda,orta_4_7_kat,1_banyo,yok,yok,yok,dusuk,orta,yuksek,yok,4_5_Milyon_TL_Arasi
Hatay,Altinozu,Satilik,31_ve_uzeri,bilinmiyor,Soba,bilinmiyor,yok,yok,yok,yok,yok,var,var,var,var,yok,yok,yok,yok,yok,yok,yok,yok,yok,yok,yok,yok,yok,yok,yok,yok,yok,yok,yok,yok,yok,kademe_5,bilinmiyor,bilinmiyor,bilinmiyor,300_m2_ve_ustu,5_oda,alcak_1_3_kat,1_banyo,yok,yok,yok,dusuk,yok,yok,yok,1_5_2_Milyon_TL_Arasi
Hatay,Antakya,Satilik,0,5,Kombi_Dogalgaz,bilinmiyor,yok,var,var,yok,yok,yok,var,yok,var,yok,yok,yok,yok,yok,yok,yok,yok,yok,yok,yok,yok,yok,yok,yok,yok,yok,yok,yok,yok,yok,kademe_5,kotu,bilinmiyor,kotu,100_125_m2,3_oda,yuksek_8_15_kat,1_banyo,yok,yok,yok,dusuk,yok,yok,yok,3_4_Milyon_TL_Arasi
Tokat,Merkez,Satilik,21_25_arasi,Villa_Kati,Kombi_Dogalgaz,bilinmiyor,yok,yok,yok,var,yok,var,var,var,var,yok,yok,yok,yok,yok,yok,yok,yok,yok,yok,yok,yok,yok,yok,yok,yok,yok,yok,yok,yok,var,kademe_5,kotu,normal,bilinmiyor,200_300_m2,7_oda_ve_ustu,orta_4_7_kat,3_banyo_ve_ustu,yok,yok,yok,dusuk,yok,yok,yok,10_Milyon_TL_Ustu
Hatay,Iskenderun,Satilik,1_5_arasi,Ara_Kat,isitma_yok_dogalgaz,bilinmiyor,yok,yok,yok,yok,yok,yok,yok,yok,yok,yok,yok,yok,yok,yok,yok,yok,yok,yok,yok,yok,yok,var,yok,yok,yok,var,var,yok,yok,yok,kademe_5,iyi,bilinmiyor,iyi,200_300_m2,5_oda,orta_4_7_kat,3_banyo_ve_ustu,yok,yok,yok,dusuk,orta,yok,yok,10_Milyon_TL_Ustu
Hatay,Antakya,Satilik,0,bilinmiyor,Kombi_Dogalgaz,bilinmiyor,yok,yok,yok,yok,var,yok,yok,var,yok,yok,yok,yok,yok,yok,yok,yok,yok,yok,yok,yok,yok,yok,yok,yok,yok,yok,yok,yok,yok,yok,kademe_5,bilinmiyor,bilinmiyor,bilinmiyor,150_200_m2,4_oda,alcak_1_3_kat,1_banyo,yok,yok,yok,dusuk,yok,yok,yok,10_Milyon_TL_Ustu
Tokat,Merkez,Satilik,16_20_arasi,4,Kombi_Dogalgaz,bilinmiyor,yok,var,var,var,yok,yok,var,var,yok,yok,var,yok,yok,var,yok,yok,yok,yok,yok,yok,yok,yok,yok,yok,yok,var,var,yok,yok,yok,kademe_5,bilinmiyor,normal,bilinmiyor,200_300_m2,7_oda_ve_ustu,orta_4_7_kat,2_banyo,dusuk,dusuk,dusuk,dusuk,yok,yuksek,yok,5_7_Bucuk_Milyon_TL_Arasi
Hatay,Kirikhan,Satilik,16_20_arasi,2,Soba,bilinmiyor,yok,var,yok,var,yok,var,var,var,yok,yok,yok,yok,yok,yok,yok,yok,yok,yok,yok,yok,yok,yok,yok,yok,yok,var,yok,yok,yok,yok,kademe_5,normal,normal,bilinmiyor,150_200_m2,4_oda,alcak_1_3_kat,3_banyo_ve_ustu,yok,yok,yok,dusuk,yok,yok,yok,4_5_Milyon_TL_Arasi
Hatay,Belen,Satilik,16_20_arasi,Bahce,Kombi,bilinmiyor,yok,var,yok,yok,yok,yok,yok,yok,yok,yok,yok,yok,yok,yok,yok,yok,yok,yok,yok,yok,yok,yok,yok,yok,yok,yok,yok,yok,yok,var,kademe_5,bilinmiyor,bilinmiyor,bilinmiyor,200_300_m2,5_oda,orta_4_7_kat,3_banyo_ve_ustu,yok,yok,yok,dusuk,yok,yok,yok,10_Milyon_TL_Ustu
Hatay,Iskenderun,Satilik,1_5_arasi,4,Klima,bilinmiyor,yok,yok,yok,yok,yok,yok,yok,yok,yok,yok,yok,yok,yok,yok,yok,yok,yok,yok,yok,yok,yok,yok,yok,yok,yok,yok,yok,yok,yok,yok,kademe_5,normal,normal,normal,0_50_m2,2_oda,orta_4_7_kat,1_banyo,yok,yok,yok,dusuk,yok,dusuk,yok,1_5_Milyon_TL_Alti
Hatay,Antakya,Satilik,16_20_arasi,Ara_Kat,Kombi_Dogalgaz,bilinmiyor,yok,var,var,var,yok,var,var,var,yok,yok,var,yok,yok,yok,yok,yok,yok,yok,yok,yok,yok,yok,var,yok,yok,var,yok,yok,yok,yok,kademe_5,normal,normal,normal,150_200_m2,4_oda,orta_4_7_kat,1_banyo,yok,yok,yok,orta,dusuk,yok,yok,3_4_Milyon_TL_Arasi
Tokat,Merkez,Satilik,26_30_arasi,4,Kombi_Dogalgaz,bilinmiyor,yok,var,var,var,yok,var,var,var,yok,yok,var,yok,yok,yok,yok,yok,yok,yok,yok,yok,yok,yok,yok,yok,yok,yok,yok,yok,yok,yok,kademe_5,bilinmiyor,iyi,bilinmiyor,125_150_m2,4_oda,orta_4_7_kat,1_banyo,yok,yok,yok,dusuk,yok,orta,yok,3_4_Milyon_TL_Arasi
Hatay,Dortyol,Satilik,16_20_arasi,4,Klima,bilinmiyor,yok,var,yok,var,var,var,var,var,yok,yok,yok,yok,yok,yok,yok,yok,yok,yok,yok,yok,yok,yok,yok,yok,yok,yok,yok,yok,yok,yok,kademe_5,normal,normal,iyi,125_150_m2,3_oda,orta_4_7_kat,1_banyo,yok,yok,yok,dusuk,yok,dusuk,yok,4_5_Milyon_TL_Arasi
Hatay,Belen,Satilik,6_10_arasi,Yuksek_Giris,Kombi,bilinmiyor,yok,var,var,var,yok,yok,var,yok,var,yok,var,var,yok,yok,yok,yok,yok,yok,yok,yok,yok,yok,var,yok,yok,yok,yok,yok,yok,yok,kademe_5,kotu,bilinmiyor,kotu,125_150_m2,4_oda,orta_4_7_kat,2_banyo,dusuk,yok,yok,dusuk,dusuk,orta,yok,3_4_Milyon_TL_Arasi
Hatay,Antakya,Satilik,16_20_arasi,4,Klima,bilinmiyor,yok,var,yok,yok,var,yok,yok,yok,yok,yok,yok,yok,yok,yok,yok,yok,yok,yok,yok,yok,yok,yok,yok,yok,yok,yok,yok,yok,yok,yok,kademe_5,kotu,bilinmiyor,bilinmiyor,75_100_m2,3_oda,orta_4_7_kat,1_banyo,yok,yok,yok,dusuk,yok,dusuk,yok,1_5_Milyon_TL_Alti
Hatay,Arsuz,Satilik,0,Bahce,Klima,bilinmiyor,yok,var,var,var,yok,var,var,var,var,yok,var,yok,yok,var,yok,yok,yok,yok,yok,yok,yok,var,var,yok,yok,var,yok,yok,yok,yok,kademe_5,iyi,iyi,bilinmiyor,50_75_m2,2_oda,orta_4_7_kat,1_banyo,dusuk,dusuk,yok,dusuk,yok,yuksek,yok,3_4_Milyon_TL_Arasi
Kahramanmaras,Onikisubat,Satilik,0,2,Kombi,bilinmiyor,yok,var,yok,var,yok,yok,var,var,var,yok,yok,yok,yok,yok,yok,yok,yok,yok,yok,yok,yok,yok,yok,yok,yok,var,yok,yok,yok,yok,kademe_5,normal,bilinmiyor,kotu,100_125_m2,4_oda,yuksek_8_15_kat,2_banyo,dusuk,yok,yok,dusuk,yok,dusuk,yok,4_5_Milyon_TL_Arasi
Tokat,Merkez,Satilik,1_5_arasi,Yuksek_Giris,Kombi_Dogalgaz,bilinmiyor,yok,var,var,yok,var,var,yok,var,yok,yok,var,yok,yok,var,yok,yok,yok,yok,yok,yok,yok,yok,yok,yok,yok,yok,yok,yok,yok,yok,kademe_5,bilinmiyor,bilinmiyor,bilinmiyor,75_100_m2,4_oda,orta_4_7_kat,2_banyo,dusuk,yok,yok,dusuk,orta,yuksek,yok,3_4_Milyon_TL_Arasi
Nigde,Merkez,Satilik,6_10_arasi,6,Kombi,bilinmiyor,yok,var,var,var,yok,yok,yok,yok,yok,yok,yok,yok,yok,yok,yok,yok,yok,yok,yok,yok,yok,yok,yok,yok,yok,yok,yok,yok,yok,yok,kademe_5,kotu,iyi,bilinmiyor,150_200_m2,4_oda,yuksek_8_15_kat,2_banyo,yok,yok,yok,dusuk,yok,dusuk,yok,5_7_Bucuk_Milyon_TL_Arasi
Hatay,Defne,Satilik,6_10_arasi,Kot_1,Kombi_Dogalgaz,bilinmiyor,yok,var,yok,var,yok,yok,var,var,var,yok,yok,yok,yok,yok,yok,yok,yok,yok,yok,yok,yok,yok,yok,yok,yok,yok,yok,yok,yok,yok,kademe_5,bilinmiyor,normal,kotu,150_200_m2,4_oda,orta_4_7_kat,2_banyo,yok,yok,yok,dusuk,yok,yok,yok,4_5_Milyon_TL_Arasi
Hatay,Belen,Satilik,16_20_arasi,bilinmiyor,Kombi_Dogalgaz,bilinmiyor,yok,var,yok,var,yok,var,var,var,var,yok,yok,yok,yok,yok,yok,yok,yok,yok,yok,yok,yok,var,yok,yok,yok,var,yok,yok,yok,var,kademe_5,iyi,kotu,kotu,200_300_m2,5_oda,orta_4_7_kat,2_banyo,yok,dusuk,dusuk,dusuk,yok,orta,yok,5_7_Bucuk_Milyon_TL_Arasi
Hatay,Iskenderun,Satilik,1_5_arasi,8,Klima,bilinmiyor,yok,var,var,var,yok,var,yok,yok,var,yok,var,var,yok,yok,yok,yok,yok,yok,yok,yok,yok,var,yok,yok,yok,var,yok,yok,yok,yok,kademe_5,kotu,kotu,bilinmiyor,100_125_m2,3_oda,yuksek_8_15_kat,2_banyo,dusuk,yok,yok,dusuk,dusuk,orta,yok,2_3_Milyon_TL_Arasi
Kahramanmaras,Onikisubat,Satilik,0,5,Kombi,bilinmiyor,yok,var,var,var,yok,yok,var,var,yok,yok,var,var,yok,var,yok,yok,yok,yok,yok,yok,yok,yok,var,yok,yok,var,yok,yok,yok,yok,kademe_5,bilinmiyor,bilinmiyor,bilinmiyor,125_150_m2,4_oda,orta_4_7_kat,2_banyo,dusuk,yok,yok,dusuk,orta,yuksek,yok,4_5_Milyon_TL_Arasi
Hatay,Payas,Satilik,0,3,Klima,bilinmiyor,yok,var,var,var,yok,yok,var,var,var,yok,yok,yok,yok,yok,yok,yok,yok,yok,yok,yok,yok,yok,yok,yok,yok,yok,yok,yok,yok,yok,kademe_5,bilinmiyor,normal,bilinmiyor,0_50_m2,2_oda,orta_4_7_kat,1_banyo,yok,yok,yok,dusuk,yok,dusuk,yok,4_5_Milyon_TL_Arasi
Bartin,Amasra,Satilik,0,1,Yerden_Isitma,bilinmiyor,yok,var,yok,var,yok,yok,yok,yok,yok,yok,yok,yok,yok,yok,yok,yok,yok,yok,yok,yok,yok,yok,yok,yok,yok,yok,yok,yok,yok,yok,kademe_5,bilinmiyor,bilinmiyor,bilinmiyor,50_75_m2,3_oda,alcak_1_3_kat,1_banyo,yok,yok,yok,dusuk,yok,yok,yok,4_5_Milyon_TL_Arasi
Erzurum,Horasan,Satilik,11_15_arasi,2,Kombi_Dogalgaz,bilinmiyor,yok,yok,yok,yok,yok,var,yok,yok,yok,yok,yok,yok,yok,yok,yok,yok,yok,yok,yok,yok,yok,yok,yok,yok,yok,yok,yok,yok,yok,yok,kademe_5,normal,kotu,kotu,300_m2_ve_ustu,4_oda,orta_4_7_kat,2_banyo,yok,yok,yok,dusuk,yok,yok,yok,2_3_Milyon_TL_Arasi
Kahramanmaras,Onikisubat,Satilik,6_10_arasi,6,Kombi_Dogalgaz,bilinmiyor,yok,var,var,var,yok,yok,var,var,var,yok,var,var,yok,yok,yok,yok,yok,yok,yok,yok,yok,yok,var,yok,yok,var,yok,yok,yok,yok,kademe_5,iyi,normal,kotu,125_150_m2,4_oda,orta_4_7_kat,2_banyo,dusuk,yok,dusuk,orta,orta,yuksek,yok,3_4_Milyon_TL_Arasi
Hatay,Payas,Satilik,0,4,Kombi,bilinmiyor,yok,var,var,var,yok,var,yok,yok,yok,yok,var,yok,yok,var,yok,yok,yok,yok,yok,yok,yok,yok,var,yok,yok,var,yok,yok,yok,yok,kademe_5,bilinmiyor,bilinmiyor,bilinmiyor,150_200_m2,4_oda,orta_4_7_kat,2_banyo,yok,yok,yok,dusuk,orta,yuksek,yok,4_5_Milyon_TL_Arasi
Hatay,Defne,Satilik,11_15_arasi,3,Kombi,bilinmiyor,yok,var,var,var,yok,var,yok,var,var,yok,var,yok,yok,var,yok,yok,yok,yok,yok,yok,yok,yok,var,yok,yok,var,yok,yok,yok,yok,kademe_5,normal,normal,bilinmiyor,200_300_m2,4_oda,orta_4_7_kat,2_banyo,dusuk,dusuk,dusuk,orta,yuksek,yuksek,yok,4_5_Milyon_TL_Arasi
Hatay,Iskenderun,Satilik,21_25_arasi,3,Klima,bilinmiyor,yok,var,yok,var,yok,yok,var,yok,var,yok,var,yok,yok,yok,yok,yok,yok,yok,yok,yok,yok,yok,yok,yok,yok,var,yok,yok,yok,yok,kademe_5,normal,normal,normal,75_100_m2,3_oda,orta_4_7_kat,1_banyo,yok,yok,yok,dusuk,yuksek,yuksek,yok,3_4_Milyon_TL_Arasi
Hatay,Arsuz,Satilik,0,2,isitma_yok,bilinmiyor,yok,var,var,var,yok,yok,yok,yok,yok,yok,yok,yok,yok,yok,yok,yok,yok,yok,yok,yok,yok,yok,yok,yok,yok,yok,yok,yok,yok,yok,kademe_5,bilinmiyor,bilinmiyor,iyi,75_100_m2,3_oda,orta_4_7_kat,1_banyo,yok,yok,yok,dusuk,dusuk,yok,yok,4_5_Milyon_TL_Arasi
Hatay,Defne,Satilik,0,2,Kombi,bilinmiyor,yok,var,var,var,yok,var,yok,var,var,yok,var,yok,yok,var,yok,yok,yok,yok,yok,yok,yok,yok,var,yok,yok,var,yok,yok,yok,yok,kademe_5,iyi,bilinmiyor,normal,150_200_m2,4_oda,orta_4_7_kat,1_banyo,yok,yok,yok,orta,dusuk,dusuk,yok,4_5_Milyon_TL_Arasi
Tokat,Zile,Satilik,0,2,Kombi,bilinmiyor,yok,var,var,var,yok,yok,yok,yok,yok,yok,yok,yok,yok,yok,yok,yok,yok,yok,yok,yok,yok,yok,yok,yok,yok,yok,yok,yok,yok,yok,kademe_5,bilinmiyor,bilinmiyor,bilinmiyor,150_200_m2,5_oda,orta_4_7_kat,1_banyo,yok,yok,yok,dusuk,yok,yok,yok,3_4_Milyon_TL_Arasi
Hatay,Dortyol,Satilik,6_10_arasi,3,Kombi,bilinmiyor,yok,var,var,var,yok,var,yok,var,yok,yok,var,var,yok,yok,yok,yok,yok,yok,yok,yok,yok,yok,var,yok,yok,var,yok,yok,yok,yok,kademe_5,kotu,bilinmiyor,kotu,150_200_m2,5_oda,orta_4_7_kat,2_banyo,yok,dusuk,yok,orta,orta,yuksek,yok,5_7_Bucuk_Milyon_TL_Arasi
Tokat,Merkez,Satilik,21_25_arasi,Ara_Kat,Kombi_Dogalgaz,bilinmiyor,yok,var,yok,yok,yok,yok,yok,yok,yok,yok,yok,yok,yok,yok,yok,yok,yok,yok,yok,yok,yok,yok,yok,yok,yok,yok,yok,yok,yok,yok,kademe_5,iyi,normal,iyi,125_150_m2,4_oda,orta_4_7_kat,1_banyo,yok,yok,yok,dusuk,yok,yok,yok,4_5_Milyon_TL_Arasi
Bartin,Merkez,Satilik,21_25_arasi,3,Kombi,bilinmiyor,yok,var,var,var,yok,var,var,yok,yok,yok,var,yok,yok,yok,yok,yok,yok,yok,yok,yok,yok,yok,yok,yok,yok,var,yok,yok,yok,yok,kademe_5,normal,kotu,bilinmiyor,100_125_m2,3_oda,orta_4_7_kat,1_banyo,yok,yok,yok,dusuk,orta,orta,yok,3_4_Milyon_TL_Arasi
Tokat,Merkez,Satilik,6_10_arasi,Bahce,Kombi_Dogalgaz,bilinmiyor,yok,yok,var,var,var,yok,yok,var,var,yok,var,yok,yok,var,yok,yok,yok,yok,yok,yok,yok,yok,yok,yok,yok,yok,yok,yok,yok,yok,kademe_5,bilinmiyor,kotu,iyi,50_75_m2,2_oda,orta_4_7_kat,bilinmiyor,yok,yok,yok,dusuk,yok,yuksek,yok,2_3_Milyon_TL_Arasi
Hatay,Arsuz,Satilik,26_30_arasi,bilinmiyor,Klima,bilinmiyor,yok,var,yok,var,yok,yok,yok,yok,yok,yok,yok,var,yok,yok,yok,yok,yok,yok,var,yok,yok,var,var,yok,yok,yok,yok,yok,yok,var,kademe_5,normal,normal,bilinmiyor,150_200_m2,5_oda,orta_4_7_kat,3_banyo_ve_ustu,dusuk,dusuk,dusuk,orta,dusuk,yuksek,yok,10_Milyon_TL_Ustu
Erzurum,Yakutiye,Satilik,16_20_arasi,3,Kombi_Dogalgaz,bilinmiyor,yok,var,yok,yok,yok,yok,var,var,yok,yok,var,yok,yok,yok,yok,yok,yok,yok,yok,yok,yok,yok,yok,yok,yok,yok,yok,yok,yok,yok,kademe_5,normal,kotu,kotu,150_200_m2,4_oda,yuksek_8_15_kat,2_banyo,yok,yok,yok,dusuk,dusuk,yok,yok,2_3_Milyon_TL_Arasi
Hatay,Arsuz,Satilik,1_5_arasi,2,Klima,bilinmiyor,yok,var,var,var,yok,var,yok,var,var,yok,var,yok,yok,var,yok,yok,yok,yok,yok,yok,yok,var,var,yok,yok,var,yok,yok,yok,yok,kademe_5,bilinmiyor,bilinmiyor,bilinmiyor,50_75_m2,3_oda,orta_4_7_kat,1_banyo,dusuk,yok,yok,dusuk,yok,yuksek,yok,4_5_Milyon_TL_Arasi
Hatay,Antakya,Satilik,6_10_arasi,3,Kombi,bilinmiyor,yok,var,var,var,var,var,yok,yok,yok,yok,yok,yok,yok,yok,yok,yok,yok,yok,yok,yok,yok,yok,yok,yok,yok,yok,yok,yok,yok,yok,kademe_5,kotu,normal,bilinmiyor,50_75_m2,2_oda,orta_4_7_kat,1_banyo,yok,yok,yok,orta,orta,orta,yok,1_5_Milyon_TL_Alti
Tokat,Niksar,Satilik,11_15_arasi,6,Kombi_Dogalgaz,bilinmiyor,yok,var,var,var,yok,yok,yok,yok,var,yok,var,var,yok,var,yok,yok,yok,var,yok,yok,yok,yok,yok,yok,yok,var,var,yok,yok,yok,kademe_5,iyi,normal,kotu,200_300_m2,6_oda,orta_4_7_kat,3_banyo_ve_ustu,dusuk,yok,yok,dusuk,yok,yuksek,yok,5_7_Bucuk_Milyon_TL_Arasi
Kahramanmaras,Elbistan,Satilik,16_20_arasi,Zemin,Kombi_Dogalgaz,bilinmiyor,yok,var,var,yok,yok,var,var,var,var,yok,var,var,yok,var,yok,yok,yok,yok,yok,yok,yok,yok,yok,yok,yok,yok,yok,yok,yok,yok,kademe_5,bilinmiyor,bilinmiyor,bilinmiyor,200_300_m2,6_oda,orta_4_7_kat,2_banyo,dusuk,yok,yok,dusuk,yok,orta,yok,2_3_Milyon_TL_Arasi
Yozgat,Merkez,Satilik,1_5_arasi,3,Kombi_Dogalgaz,bilinmiyor,yok,var,var,var,yok,yok,yok,yok,yok,yok,var,var,yok,var,yok,yok,yok,yok,yok,yok,yok,yok,yok,yok,yok,yok,yok,yok,yok,yok,kademe_5,iyi,iyi,bilinmiyor,125_150_m2,4_oda,yuksek_8_15_kat,2_banyo,dusuk,dusuk,yok,dusuk,orta,yuksek,yok,5_7_Bucuk_Milyon_TL_Arasi
Tokat,Merkez,Satilik,0,bilinmiyor,Yerden_Isitma,bilinmiyor,yok,var,yok,var,yok,yok,yok,var,var,yok,var,yok,yok,var,yok,yok,yok,yok,yok,yok,yok,yok,var,yok,yok,var,yok,yok,yok,yok,kademe_5,bilinmiyor,bilinmiyor,kotu,200_300_m2,7_oda_ve_ustu,alcak_1_3_kat,2_banyo,dusuk,dusuk,yok,dusuk,yok,yuksek,yok,10_Milyon_TL_Ustu
Kahramanmaras,Dulkadiroglu,Satilik,0,3,Kombi,bilinmiyor,yok,var,yok,var,yok,var,yok,var,yok,yok,yok,yok,yok,yok,yok,yok,yok,yok,yok,yok,yok,yok,yok,yok,yok,yok,yok,yok,yok,yok,kademe_5,normal,bilinmiyor,bilinmiyor,125_150_m2,4_oda,orta_4_7_kat,2_banyo,yok,yok,yok,dusuk,yok,yok,yok,2_3_Milyon_TL_Arasi
Tokat,Merkez,Satilik,21_25_arasi,3,Kombi_Dogalgaz,bilinmiyor,yok,var,var,yok,yok,yok,var,var,var,yok,var,yok,yok,yok,yok,yok,yok,yok,yok,yok,yok,yok,yok,yok,yok,var,yok,yok,yok,yok,kademe_5,normal,kotu,bilinmiyor,100_125_m2,3_oda,orta_4_7_kat,1_banyo,yok,yok,yok,dusuk,yuksek,dusuk,yok,3_4_Milyon_TL_Arasi
Hatay,Iskenderun,Satilik,6_10_arasi,Yuksek_Giris,Kombi_Dogalgaz,bilinmiyor,yok,var,var,yok,yok,var,var,var,yok,yok,var,yok,yok,yok,yok,yok,yok,yok,yok,yok,yok,var,var,yok,yok,var,yok,yok,yok,yok,kademe_5,bilinmiyor,iyi,kotu,100_125_m2,3_oda,orta_4_7_kat,1_banyo,dusuk,yok,yok,dusuk,dusuk,orta,yok,2_3_Milyon_TL_Arasi
Kahramanmaras,Onikisubat,Satilik,1_5_arasi,2,Klima,bilinmiyor,yok,var,var,var,var,var,yok,var,yok,yok,yok,yok,yok,yok,yok,yok,yok,yok,yok,yok,yok,yok,yok,yok,yok,yok,yok,yok,yok,yok,kademe_5,normal,normal,normal,50_75_m2,2_oda,orta_4_7_kat,1_banyo,yok,yok,yok,dusuk,yok,dusuk,yok,1_5_2_Milyon_TL_Arasi
Hatay,Payas,Satilik,1_5_arasi,Zemin,Kombi_Dogalgaz,bilinmiyor,yok,var,var,var,yok,yok,var,yok,var,yok,var,yok,yok,yok,yok,yok,yok,yok,yok,yok,yok,yok,yok,yok,yok,yok,yok,yok,yok,yok,kademe_5,kotu,normal,normal,100_125_m2,3_oda,orta_4_7_kat,1_banyo,yok,yok,yok,dusuk,dusuk,orta,yok,3_4_Milyon_TL_Arasi
Erzurum,Palandoken,Satilik,6_10_arasi,Bahce,Yerden_Isitma,bilinmiyor,yok,var,yok,var,yok,var,var,var,var,yok,var,var,yok,var,yok,yok,yok,yok,yok,yok,yok,yok,var,yok,yok,yok,yok,yok,yok,var,kademe_5,bilinmiyor,iyi,bilinmiyor,300_m2_ve_ustu,6_oda,orta_4_7_kat,3_banyo_ve_ustu,dusuk,dusuk,dusuk,dusuk,yuksek,yuksek,yok,10_Milyon_TL_Ustu
Tokat,Niksar,Satilik,21_25_arasi,4,Kombi_Dogalgaz,bilinmiyor,yok,var,yok,var,yok,yok,yok,var,yok,yok,yok,yok,yok,var,yok,yok,yok,yok,yok,yok,yok,yok,yok,yok,yok,yok,yok,yok,yok,yok,kademe_5,kotu,kotu,bilinmiyor,125_150_m2,4_oda,orta_4_7_kat,1_banyo,yok,yok,yok,dusuk,yok,orta,yok,3_4_Milyon_TL_Arasi
Hatay,Antakya,Satilik,1_5_arasi,3,Kombi_Dogalgaz,bilinmiyor,yok,var,var,yok,yok,yok,var,yok,var,yok,var,yok,yok,var,yok,yok,yok,yok,yok,yok,yok,yok,var,yok,yok,var,yok,yok,yok,yok,kademe_5,iyi,normal,bilinmiyor,50_75_m2,3_oda,orta_4_7_kat,1_banyo,dusuk,dusuk,yok,orta,orta,yuksek,yok,2_3_Milyon_TL_Arasi
Hatay,Arsuz,Satilik,0,Ara_Kat,Kombi_Dogalgaz,bilinmiyor,yok,var,var,var,yok,var,var,var,var,yok,var,yok,yok,yok,yok,yok,yok,yok,yok,yok,yok,yok,yok,yok,yok,var,yok,yok,yok,yok,kademe_5,bilinmiyor,bilinmiyor,bilinmiyor,50_75_m2,3_oda,orta_4_7_kat,1_banyo,dusuk,dusuk,yok,dusuk,orta,yuksek,yok,4_5_Milyon_TL_Arasi
Osmaniye,Toprakkale,Satilik,0,3,Kombi,bilinmiyor,yok,var,var,var,yok,yok,yok,yok,yok,yok,yok,yok,yok,yok,yok,yok,yok,yok,yok,yok,yok,yok,yok,yok,yok,yok,yok,yok,yok,yok,kademe_5,iyi,normal,bilinmiyor,100_125_m2,3_oda,orta_4_7_kat,2_banyo,yok,yok,yok,dusuk,yok,yok,yok,3_4_Milyon_TL_Arasi
Kahramanmaras,Onikisubat,Satilik,11_15_arasi,4,Kombi_Dogalgaz,bilinmiyor,yok,var,yok,var,yok,yok,yok,yok,yok,yok,yok,yok,yok,yok,yok,yok,yok,yok,yok,yok,yok,yok,yok,yok,yok,yok,yok,yok,yok,yok,kademe_5,iyi,normal,bilinmiyor,200_300_m2,5_oda,yuksek_8_15_kat,2_banyo,yok,yok,yok,dusuk,yok,yok,yok,4_5_Milyon_TL_Arasi
Kahramanmaras,Onikisubat,Satilik,1_5_arasi,1,Kombi,bilinmiyor,yok,var,yok,var,yok,yok,yok,yok,yok,yok,var,yok,yok,yok,yok,yok,yok,yok,var,yok,yok,yok,yok,yok,yok,yok,yok,yok,yok,var,kademe_5,kotu,normal,bilinmiyor,300_m2_ve_ustu,5_oda,orta_4_7_kat,2_banyo,dusuk,dusuk,yok,dusuk,yuksek,yuksek,yok,5_7_Bucuk_Milyon_TL_Arasi
Nigde,Merkez,Satilik,11_15_arasi,2,Kombi,bilinmiyor,yok,var,yok,var,yok,yok,var,var,yok,yok,var,yok,yok,yok,yok,yok,yok,yok,yok,yok,yok,yok,yok,yok,yok,var,yok,yok,yok,yok,kademe_5,kotu,normal,bilinmiyor,150_200_m2,4_oda,orta_4_7_kat,1_banyo,yok,yok,dusuk,dusuk,yuksek,dusuk,yok,3_4_Milyon_TL_Arasi
Hatay,Arsuz,Satilik,6_10_arasi,11,Merkezi,bilinmiyor,yok,var,var,var,yok,yok,yok,var,yok,yok,var,yok,yok,yok,yok,yok,yok,yok,var,yok,yok,var,var,yok,yok,var,var,yok,var,yok,kademe_5,kotu,normal,bilinmiyor,200_300_m2,5_oda,yuksek_8_15_kat,3_banyo_ve_ustu,dusuk,dusuk,yok,dusuk,yok,orta,yok,7_Bucuk_10_Milyon_TL_Arasi
Bartin,Merkez,Satilik,26_30_arasi,3,Soba,bilinmiyor,yok,var,yok,var,yok,yok,yok,yok,yok,yok,yok,yok,yok,var,var,yok,yok,yok,yok,yok,yok,yok,yok,yok,yok,var,yok,yok,yok,yok,kademe_5,kotu,iyi,kotu,300_m2_ve_ustu,4_oda,orta_4_7_kat,2_banyo,yok,yok,yok,dusuk,yok,yok,yok,10_Milyon_TL_Ustu
Hatay,Arsuz,Satilik,21_25_arasi,bilinmiyor,Klima,bilinmiyor,yok,var,yok,yok,var,var,var,yok,yok,yok,yok,yok,yok,yok,yok,yok,yok,yok,yok,yok,yok,yok,yok,yok,yok,yok,yok,yok,yok,var,kademe_5,bilinmiyor,bilinmiyor,bilinmiyor,300_m2_ve_ustu,5_oda,orta_4_7_kat,3_banyo_ve_ustu,yok,yok,yok,dusuk,yok,dusuk,yok,10_Milyon_TL_Ustu
Erzurum,Palandoken,Satilik,0,7,Merkezi,bilinmiyor,yok,var,var,var,yok,yok,var,yok,yok,yok,var,var,yok,var,yok,yok,yok,yok,yok,yok,yok,yok,var,yok,yok,var,yok,yok,yok,yok,kademe_5,iyi,iyi,bilinmiyor,100_125_m2,3_oda,yuksek_8_15_kat,2_banyo,dusuk,yok,yok,dusuk,dusuk,yuksek,yok,4_5_Milyon_TL_Arasi
Hatay,Erzin,Satilik,0,2,Kombi,bilinmiyor,yok,var,var,var,yok,yok,yok,var,yok,yok,var,yok,yok,var,yok,yok,yok,yok,yok,yok,yok,yok,yok,yok,yok,var,yok,yok,yok,yok,kademe_5,bilinmiyor,iyi,bilinmiyor,125_150_m2,3_oda,orta_4_7_kat,1_banyo,dusuk,dusuk,dusuk,dusuk,orta,yuksek,yok,4_5_Milyon_TL_Arasi
Hatay,Iskenderun,Satilik,26_30_arasi,4,isitma_yok_elektrik,bilinmiyor,yok,var,yok,yok,yok,var,var,yok,yok,yok,yok,yok,yok,yok,yok,yok,yok,yok,yok,yok,yok,yok,yok,yok,yok,yok,yok,yok,yok,yok,kademe_5,bilinmiyor,kotu,kotu,150_200_m2,4_oda,orta_4_7_kat,1_banyo,yok,yok,yok,dusuk,yok,yok,yok,1_5_2_Milyon_TL_Arasi
Hatay,Defne,Satilik,11_15_arasi,3,Kombi_Dogalgaz,bilinmiyor,yok,var,yok,var,var,yok,yok,var,yok,yok,var,var,yok,var,var,yok,yok,yok,yok,yok,yok,yok,var,yok,yok,var,var,yok,yok,yok,kademe_5,iyi,bilinmiyor,normal,300_m2_ve_ustu,7_oda_ve_ustu,orta_4_7_kat,2_banyo,dusuk,orta,dusuk,dusuk,yok,yuksek,yok,5_7_Bucuk_Milyon_TL_Arasi
Hatay,Belen,Satilik,6_10_arasi,bilinmiyor,Kombi_Dogalgaz,bilinmiyor,yok,var,yok,var,yok,yok,yok,yok,yok,yok,yok,yok,yok,yok,yok,yok,yok,yok,yok,yok,yok,yok,yok,yok,yok,yok,yok,yok,yok,yok,kademe_5,normal,iyi,iyi,300_m2_ve_ustu,6_oda,orta_4_7_kat,2_banyo,yok,yok,yok,dusuk,yok,yok,yok,10_Milyon_TL_Ustu
Bartin,Amasra,Satilik,16_20_arasi,Ara_Kat,Kombi_Dogalgaz,bilinmiyor,yok,yok,yok,yok,yok,yok,yok,yok,yok,yok,yok,yok,yok,yok,yok,yok,yok,yok,yok,yok,yok,yok,yok,yok,yok,yok,yok,yok,yok,yok,kademe_5,kotu,bilinmiyor,normal,75_100_m2,3_oda,orta_4_7_kat,1_banyo,yok,yok,yok,dusuk,yok,yok,yok,3_4_Milyon_TL_Arasi
Bartin,Merkez,Satilik,16_20_arasi,Bahce,isitma_yok,bilinmiyor,yok,var,yok,var,var,yok,yok,yok,yok,yok,yok,yok,yok,yok,yok,yok,yok,yok,yok,yok,yok,yok,yok,yok,yok,yok,yok,yok,yok,yok,kademe_5,iyi,normal,bilinmiyor,200_300_m2,5_oda,alcak_1_3_kat,2_banyo,yok,yok,yok,dusuk,yok,yok,yok,10_Milyon_TL_Ustu
Kahramanmaras,Onikisubat,Satilik,0,6,Kombi,bilinmiyor,yok,var,yok,var,yok,var,yok,var,var,yok,yok,yok,yok,yok,yok,yok,yok,yok,yok,yok,yok,yok,yok,yok,yok,yok,yok,yok,yok,yok,kademe_5,iyi,normal,bilinmiyor,125_150_m2,4_oda,orta_4_7_kat,2_banyo,yok,yok,yok,dusuk,yok,yok,yok,4_5_Milyon_TL_Arasi
Tokat,Pazar,Satilik,0,2,Kombi_Dogalgaz,bilinmiyor,yok,var,yok,var,yok,yok,var,var,yok,yok,var,yok,yok,var,yok,yok,yok,yok,yok,yok,yok,yok,yok,yok,yok,yok,yok,yok,yok,yok,kademe_5,iyi,normal,bilinmiyor,75_100_m2,3_oda,alcak_1_3_kat,1_banyo,dusuk,dusuk,yok,dusuk,yok,yuksek,yok,2_3_Milyon_TL_Arasi
Tokat,Turhal,Satilik,6_10_arasi,4,Kombi,bilinmiyor,yok,var,var,var,yok,yok,yok,yok,yok,yok,yok,yok,yok,yok,yok,yok,yok,yok,yok,yok,yok,yok,yok,yok,yok,yok,yok,yok,yok,yok,kademe_5,normal,kotu,bilinmiyor,150_200_m2,4_oda,orta_4_7_kat,2_banyo,yok,yok,yok,dusuk,yok,yok,yok,4_5_Milyon_TL_Arasi
Tokat,Merkez,Satilik,21_25_arasi,1,Kombi_Dogalgaz,bilinmiyor,yok,yok,yok,yok,yok,var,var,var,var,yok,yok,yok,yok,yok,yok,yok,yok,yok,yok,yok,yok,yok,yok,yok,yok,yok,yok,yok,yok,yok,kademe_5,kotu,kotu,bilinmiyor,125_150_m2,4_oda,orta_4_7_kat,1_banyo,yok,yok,yok,dusuk,yok,yok,yok,3_4_Milyon_TL_Arasi
Hatay,Iskenderun,Satilik,11_15_arasi,Zemin,isitma_yok,bilinmiyor,yok,var,var,var,yok,yok,yok,yok,yok,yok,yok,yok,yok,yok,yok,yok,yok,yok,yok,yok,yok,yok,yok,yok,yok,yok,yok,yok,yok,yok,kademe_5,kotu,normal,normal,125_150_m2,4_oda,orta_4_7_kat,2_banyo,yok,yok,yok,dusuk,yok,yok,yok,2_3_Milyon_TL_Arasi
Hatay,Arsuz,Satilik,1_5_arasi,En_Ust_Kat,Kombi_Dogalgaz,bilinmiyor,yok,var,var,var,var,yok,yok,yok,yok,yok,var,yok,yok,yok,yok,yok,yok,yok,yok,yok,yok,yok,yok,yok,yok,yok,yok,yok,var,yok,kademe_5,kotu,iyi,iyi,75_100_m2,3_oda,orta_4_7_kat,1_banyo,yok,dusuk,yok,dusuk,yok,dusuk,yok,4_5_Milyon_TL_Arasi
Tokat,Merkez,Satilik,0,Giris,Kombi,bilinmiyor,yok,var,var,var,yok,yok,yok,yok,yok,yok,yok,yok,yok,yok,yok,yok,yok,yok,yok,yok,yok,yok,yok,yok,yok,var,yok,yok,yok,yok,kademe_5,iyi,iyi,bilinmiyor,0_50_m2,2_oda,orta_4_7_kat,1_banyo,yok,yok,yok,dusuk,yok,yok,yok,2_3_Milyon_TL_Arasi
Hatay,Antakya,Satilik,11_15_arasi,Yuksek_Giris,Kombi_Dogalgaz,bilinmiyor,yok,var,var,var,yok,var,yok,var,var,yok,var,yok,yok,yok,yok,yok,yok,yok,yok,yok,yok,yok,yok,yok,yok,var,yok,yok,yok,yok,kademe_5,normal,normal,normal,150_200_m2,4_oda,orta_4_7_kat,1_banyo,dusuk,dusuk,yok,dusuk,yok,yuksek,yok,2_3_Milyon_TL_Arasi
Hatay,Defne,Satilik,1_5_arasi,4,Kombi,bilinmiyor,yok,var,var,var,yok,yok,yok,var,yok,yok,var,var,yok,var,var,yok,yok,yok,yok,yok,yok,yok,yok,yok,yok,yok,yok,yok,yok,yok,kademe_5,kotu,normal,iyi,300_m2_ve_ustu,6_oda,orta_4_7_kat,2_banyo,dusuk,orta,dusuk,yok,orta,yuksek,yok,7_Bucuk_10_Milyon_TL_Arasi
Kahramanmaras,Onikisubat,Satilik,6_10_arasi,6,Kombi,bilinmiyor,yok,var,yok,var,yok,yok,yok,yok,yok,yok,var,var,yok,yok,yok,yok,yok,yok,yok,yok,yok,yok,yok,yok,yok,yok,yok,yok,yok,yok,kademe_5,normal,normal,bilinmiyor,150_200_m2,5_oda,yuksek_8_15_kat,2_banyo,dusuk,yok,dusuk,dusuk,orta,yuksek,yok,4_5_Milyon_TL_Arasi
Yozgat,Merkez,Satilik,11_15_arasi,4,Kombi_Dogalgaz,bilinmiyor,yok,var,var,var,yok,yok,yok,yok,yok,yok,var,yok,yok,yok,yok,yok,yok,yok,yok,yok,yok,yok,var,yok,yok,var,yok,yok,yok,yok,kademe_5,bilinmiyor,normal,bilinmiyor,125_150_m2,4_oda,orta_4_7_kat,1_banyo,orta,yok,dusuk,orta,dusuk,yuksek,yok,2_3_Milyon_TL_Arasi
Hatay,Antakya,Satilik,6_10_arasi,En_Ust_Kat,Kombi_Dogalgaz,bilinmiyor,yok,var,var,yok,yok,yok,var,yok,var,yok,var,var,yok,yok,yok,yok,yok,yok,yok,yok,yok,yok,yok,yok,yok,var,yok,yok,yok,yok,kademe_5,iyi,kotu,normal,150_200_m2,4_oda,orta_4_7_kat,2_banyo,yok,yok,yok,dusuk,orta,dusuk,yok,2_3_Milyon_TL_Arasi
Hatay,Iskenderun,Satilik,6_10_arasi,3,isitma_yok,bilinmiyor,yok,var,yok,var,yok,var,var,var,yok,yok,yok,yok,yok,yok,yok,yok,yok,yok,yok,yok,yok,yok,yok,yok,yok,yok,yok,yok,yok,yok,kademe_5,normal,normal,normal,150_200_m2,4_oda,orta_4_7_kat,2_banyo,yok,yok,yok,dusuk,yok,yok,yok,4_5_Milyon_TL_Arasi
Hatay,Altinozu,Satilik,1_5_arasi,bilinmiyor,Klima,bilinmiyor,yok,var,yok,var,yok,var,var,var,var,yok,var,var,yok,var,yok,yok,yok,yok,yok,yok,yok,yok,yok,yok,yok,var,var,yok,yok,yok,kademe_5,iyi,normal,normal,300_m2_ve_ustu,6_oda,alcak_1_3_kat,3_banyo_ve_ustu,dusuk,dusuk,yok,dusuk,yok,yuksek,yok,10_Milyon_TL_Ustu
Hatay,Iskenderun,Satilik,0,Ara_Kat,bilinmiyor,bilinmiyor,yok,var,yok,yok,yok,yok,yok,yok,yok,yok,var,yok,yok,yok,yok,yok,yok,yok,yok,yok,yok,yok,yok,yok,yok,yok,yok,yok,yok,yok,kademe_5,bilinmiyor,bilinmiyor,bilinmiyor,50_75_m2,2_oda,orta_4_7_kat,1_banyo,yok,yok,yok,dusuk,yok,orta,yok,2_3_Milyon_TL_Arasi
Nigde,Ulukisla,Satilik,26_30_arasi,Bahce,Soba,bilinmiyor,yok,var,yok,yok,var,yok,yok,yok,yok,yok,yok,yok,yok,yok,yok,yok,yok,yok,yok,yok,yok,yok,yok,yok,yok,yok,yok,yok,yok,yok,kademe_5,bilinmiyor,bilinmiyor,bilinmiyor,300_m2_ve_ustu,3_oda,bilinmiyor,1_banyo,yok,yok,yok,dusuk,yok,yok,yok,3_4_Milyon_TL_Arasi
Tokat,Merkez,Satilik,11_15_arasi,5,Kombi,bilinmiyor,yok,var,var,var,yok,var,var,var,yok,yok,yok,yok,yok,yok,yok,yok,yok,yok,yok,yok,yok,yok,yok,yok,yok,yok,yok,yok,yok,yok,kademe_5,normal,bilinmiyor,bilinmiyor,200_300_m2,7_oda_ve_ustu,orta_4_7_kat,2_banyo,yok,yok,yok,dusuk,yok,dusuk,yok,7_Bucuk_10_Milyon_TL_Arasi
Kahramanmaras,Onikisubat,Satilik,11_15_arasi,1,Merkezi,bilinmiyor,yok,var,yok,var,yok,yok,var,var,var,yok,var,var,yok,var,yok,yok,yok,yok,yok,yok,yok,yok,var,yok,yok,var,yok,yok,yok,yok,kademe_5,normal,kotu,bilinmiyor,200_300_m2,2_oda,yuksek_8_15_kat,2_banyo,dusuk,dusuk,yok,dusuk,yok,yuksek,yok,3_4_Milyon_TL_Arasi
Hatay,Defne,Satilik,0,Bahce,Kombi,bilinmiyor,yok,yok,yok,var,yok,var,var,var,var,yok,var,var,yok,var,var,yok,yok,yok,yok,yok,yok,yok,yok,yok,yok,var,var,yok,yok,yok,kademe_5,bilinmiyor,bilinmiyor,iyi,200_300_m2,5_oda,alcak_1_3_kat,3_banyo_ve_ustu,dusuk,orta,dusuk,orta,yuksek,yuksek,yok,10_Milyon_TL_Ustu
Hatay,Defne,Satilik,1_5_arasi,1,Kombi_Dogalgaz,bilinmiyor,yok,yok,yok,var,yok,var,var,var,yok,yok,var,yok,yok,var,yok,yok,yok,yok,yok,yok,yok,yok,yok,yok,yok,yok,yok,yok,yok,yok,kademe_5,normal,iyi,normal,150_200_m2,4_oda,orta_4_7_kat,1_banyo,yok,dusuk,yok,dusuk,yok,orta,yok,3_4_Milyon_TL_Arasi
Nigde,Merkez,Satilik,0,13,Merkezi,bilinmiyor,yok,var,var,var,yok,yok,yok,yok,yok,yok,var,var,yok,yok,yok,yok,yok,yok,yok,yok,yok,yok,yok,yok,yok,var,yok,yok,yok,yok,kademe_5,normal,bilinmiyor,kotu,300_m2_ve_ustu,4_oda,yuksek_8_15_kat,2_banyo,yok,dusuk,yok,orta,dusuk,yok,yok,4_5_Milyon_TL_Arasi
Hatay,Iskenderun,Satilik,11_15_arasi,9,Kombi_Dogalgaz,bilinmiyor,yok,var,var,var,yok,yok,yok,yok,yok,yok,var,yok,yok,var,yok,yok,yok,yok,yok,yok,yok,yok,yok,yok,yok,var,yok,yok,yok,yok,kademe_5,normal,bilinmiyor,bilinmiyor,150_200_m2,4_oda,yuksek_8_15_kat,1_banyo,yok,yok,yok,orta,orta,orta,yok,3_4_Milyon_TL_Arasi
Erzurum,Yakutiye,Satilik,0,1,Yerden_Isitma,bilinmiyor,yok,yok,var,var,yok,yok,var,yok,var,yok,var,var,yok,yok,yok,yok,yok,yok,yok,yok,yok,yok,yok,yok,yok,var,yok,yok,yok,yok,kademe_5,iyi,iyi,bilinmiyor,150_200_m2,5_oda,orta_4_7_kat,2_banyo,dusuk,dusuk,yok,dusuk,yuksek,yuksek,yok,5_7_Bucuk_Milyon_TL_Arasi
Hatay,Kirikhan,Satilik,6_10_arasi,2,Kombi,bilinmiyor,yok,var,var,var,yok,var,var,var,var,yok,yok,yok,yok,yok,yok,yok,yok,yok,yok,yok,yok,yok,yok,yok,yok,yok,yok,yok,yok,yok,kademe_5,normal,normal,kotu,150_200_m2,4_oda,alcak_1_3_kat,1_banyo,yok,yok,yok,dusuk,yok,yok,yok,2_3_Milyon_TL_Arasi
Hatay,Arsuz,Satilik,1_5_arasi,3,Klima,bilinmiyor,yok,var,yok,var,yok,yok,yok,yok,yok,yok,var,yok,yok,yok,yok,yok,yok,yok,yok,yok,yok,yok,yok,yok,yok,yok,yok,yok,yok,yok,kademe_5,iyi,bilinmiyor,normal,125_150_m2,4_oda,orta_4_7_kat,2_banyo,yok,dusuk,yok,dusuk,dusuk,orta,yok,5_7_Bucuk_Milyon_TL_Arasi
Hatay,Belen,Satilik,6_10_arasi,Yuksek_Giris,Kombi,bilinmiyor,yok,var,var,var,yok,var,yok,var,var,yok,var,var,yok,yok,yok,yok,yok,yok,yok,yok,yok,yok,var,yok,yok,yok,yok,yok,yok,yok,kademe_5,iyi,normal,bilinmiyor,100_125_m2,4_oda,orta_4_7_kat,2_banyo,yok,yok,yok,orta,orta,yuksek,yok,4_5_Milyon_TL_Arasi
Hatay,Arsuz,Satilik,1_5_arasi,Cati,Gunes_Enerjisi,bilinmiyor,yok,var,var,var,yok,yok,var,yok,var,yok,var,yok,yok,yok,yok,yok,yok,yok,yok,yok,yok,var,var,yok,yok,var,yok,yok,var,yok,kademe_5,normal,normal,normal,100_125_m2,4_oda,orta_4_7_kat,1_banyo,yok,yok,dusuk,dusuk,orta,orta,yok,7_Bucuk_10_Milyon_TL_Arasi
Hatay,Arsuz,Satilik,26_30_arasi,Zemin,isitma_yok_elektrik,bilinmiyor,yok,var,yok,var,yok,var,var,var,yok,yok,var,yok,yok,yok,yok,yok,yok,yok,yok,yok,yok,yok,yok,yok,yok,yok,yok,yok,yok,yok,kademe_5,bilinmiyor,iyi,bilinmiyor,125_150_m2,4_oda,orta_4_7_kat,1_banyo,yok,yok,dusuk,dusuk,dusuk,orta,dusuk,2_3_Milyon_TL_Arasi
Tokat,Merkez,Satilik,0,4,Kombi,bilinmiyor,yok,var,var,var,yok,yok,yok,var,yok,yok,var,yok,yok,var,yok,yok,yok,yok,yok,yok,yok,yok,var,yok,yok,yok,var,yok,yok,yok,kademe_5,kotu,bilinmiyor,iyi,50_75_m2,2_oda,orta_4_7_kat,1_banyo,yok,yok,dusuk,dusuk,orta,yuksek,yok,2_3_Milyon_TL_Arasi
Tokat,Niksar,Satilik,0,En_Ust_Kat,Yerden_Isitma,bilinmiyor,yok,var,yok,yok,yok,var,yok,var,yok,yok,yok,yok,yok,yok,yok,yok,yok,yok,yok,yok,yok,yok,yok,yok,yok,yok,yok,yok,yok,yok,kademe_5,normal,normal,bilinmiyor,100_125_m2,3_oda,orta_4_7_kat,2_banyo,yok,yok,yok,dusuk,yok,yok,yok,3_4_Milyon_TL_Arasi
Erzurum,Yakutiye,Satilik,11_15_arasi,1,bilinmiyor,bilinmiyor,yok,var,var,yok,yok,yok,yok,yok,yok,yok,yok,yok,yok,yok,yok,yok,yok,yok,yok,yok,yok,yok,yok,yok,yok,yok,yok,yok,yok,yok,kademe_5,kotu,normal,bilinmiyor,150_200_m2,4_oda,alcak_1_3_kat,1_banyo,yok,yok,yok,dusuk,yok,yok,yok,4_5_Milyon_TL_Arasi
Tokat,Merkez,Satilik,0,2,Kombi,bilinmiyor,yok,var,var,var,yok,yok,yok,yok,yok,yok,yok,yok,yok,yok,yok,yok,yok,yok,yok,yok,yok,yok,yok,yok,yok,yok,yok,yok,yok,yok,kademe_5,normal,iyi,bilinmiyor,0_50_m2,2_oda,orta_4_7_kat,1_banyo,yok,yok,yok,dusuk,yok,dusuk,yok,3_4_Milyon_TL_Arasi
Hatay,Iskenderun,Satilik,11_15_arasi,3,Klima,bilinmiyor,yok,yok,yok,yok,yok,yok,yok,yok,yok,yok,yok,yok,yok,yok,yok,yok,yok,yok,yok,yok,yok,yok,yok,yok,yok,yok,yok,yok,yok,yok,kademe_5,iyi,normal,bilinmiyor,125_150_m2,4_oda,orta_4_7_kat,1_banyo,yok,yok,yok,dusuk,yok,dusuk,yok,3_4_Milyon_TL_Arasi
Tokat,Merkez,Satilik,1_5_arasi,1,Kombi,bilinmiyor,yok,yok,var,var,var,yok,var,yok,yok,yok,var,yok,yok,var,yok,yok,yok,yok,yok,yok,yok,yok,yok,yok,yok,var,yok,yok,yok,yok,kademe_5,bilinmiyor,normal,bilinmiyor,50_75_m2,2_oda,orta_4_7_kat,1_banyo,yok,yok,dusuk,dusuk,yuksek,yuksek,yok,3_4_Milyon_TL_Arasi
Tokat,Niksar,Satilik,0,2,Kombi_Dogalgaz,bilinmiyor,yok,var,var,var,yok,yok,yok,var,yok,yok,var,yok,yok,var,yok,yok,yok,var,yok,yok,yok,yok,yok,yok,yok,yok,yok,yok,yok,yok,kademe_5,normal,normal,kotu,150_200_m2,4_oda,orta_4_7_kat,2_banyo,yok,yok,yok,dusuk,orta,orta,yok,4_5_Milyon_TL_Arasi
Tokat,Niksar,Satilik,1_5_arasi,bilinmiyor,Soba,bilinmiyor,yok,var,yok,var,var,yok,yok,yok,yok,yok,var,yok,yok,var,yok,yok,yok,yok,yok,yok,yok,yok,yok,yok,yok,yok,yok,yok,yok,yok,kademe_5,kotu,iyi,bilinmiyor,200_300_m2,5_oda,alcak_1_3_kat,2_banyo,yok,yok,dusuk,dusuk,yok,orta,yok,5_7_Bucuk_Milyon_TL_Arasi
Hatay,Antakya,Satilik,11_15_arasi,4,Merkezi,bilinmiyor,yok,var,yok,var,var,yok,yok,yok,yok,yok,var,yok,yok,var,yok,yok,yok,yok,yok,yok,yok,yok,yok,yok,yok,var,yok,yok,yok,yok,kademe_5,kotu,kotu,bilinmiyor,50_75_m2,3_oda,orta_4_7_kat,1_banyo,yok,dusuk,dusuk,orta,yuksek,yuksek,yok,1_5_Milyon_TL_Alti
Hatay,Iskenderun,Satilik,31_ve_uzeri,bilinmiyor,Soba,bilinmiyor,yok,var,yok,yok,yok,yok,yok,yok,yok,yok,yok,yok,yok,yok,yok,yok,yok,yok,yok,yok,yok,yok,yok,yok,yok,yok,yok,yok,yok,yok,kademe_5,kotu,bilinmiyor,bilinmiyor,125_150_m2,4_oda,alcak_1_3_kat,1_banyo,yok,yok,yok,dusuk,orta,dusuk,yok,5_7_Bucuk_Milyon_TL_Arasi
Tokat,Merkez,Satilik,26_30_arasi,Ara_Kat,Kombi,bilinmiyor,yok,yok,var,yok,yok,yok,yok,var,var,yok,yok,yok,yok,yok,yok,yok,yok,yok,yok,yok,yok,yok,yok,yok,yok,yok,yok,yok,yok,yok,kademe_5,kotu,bilinmiyor,bilinmiyor,100_125_m2,3_oda,orta_4_7_kat,1_banyo,yok,yok,yok,dusuk,yok,yok,yok,3_4_Milyon_TL_Arasi
Hatay,Iskenderun,Satilik,6_10_arasi,Ara_Kat,Klima,bilinmiyor,yok,var,var,var,yok,var,yok,yok,var,yok,var,yok,yok,var,yok,yok,yok,yok,yok,yok,yok,yok,var,yok,yok,var,yok,yok,yok,yok,kademe_5,bilinmiyor,normal,bilinmiyor,75_100_m2,3_oda,orta_4_7_kat,1_banyo,yok,yok,yok,dusuk,orta,yuksek,yok,2_3_Milyon_TL_Arasi
Osmaniye,Merkez,Satilik,11_15_arasi,Bahce,Klima,bilinmiyor,yok,var,yok,yok,yok,var,var,var,var,yok,var,var,yok,yok,yok,yok,yok,yok,yok,yok,yok,yok,var,yok,yok,var,yok,yok,yok,yok,kademe_5,kotu,kotu,kotu,150_200_m2,4_oda,bilinmiyor,2_banyo,yok,yok,yok,dusuk,orta,orta,yok,5_7_Bucuk_Milyon_TL_Arasi
Hatay,Iskenderun,Satilik,21_25_arasi,2,Klima,bilinmiyor,yok,var,yok,var,yok,var,var,var,var,yok,yok,yok,yok,yok,yok,yok,yok,yok,yok,yok,yok,yok,yok,yok,yok,var,yok,yok,yok,yok,kademe_5,normal,kotu,bilinmiyor,125_150_m2,3_oda,orta_4_7_kat,1_banyo,yok,yok,dusuk,orta,yuksek,orta,yok,2_3_Milyon_TL_Arasi
Yozgat,Merkez,Satilik,26_30_arasi,Bahce,Kombi,bilinmiyor,yok,var,yok,yok,yok,var,yok,var,yok,yok,yok,yok,yok,yok,yok,yok,yok,yok,yok,yok,yok,yok,yok,yok,yok,yok,yok,yok,yok,yok,kademe_5,normal,normal,bilinmiyor,125_150_m2,4_oda,bilinmiyor,1_banyo,yok,yok,yok,dusuk,yok,yok,yok,3_4_Milyon_TL_Arasi
Hatay,Kirikhan,Satilik,21_25_arasi,Bahce,Soba,bilinmiyor,yok,var,yok,yok,yok,var,var,var,var,yok,yok,yok,yok,yok,yok,yok,yok,yok,yok,yok,yok,yok,yok,yok,yok,yok,yok,yok,yok,yok,kademe_5,bilinmiyor,bilinmiyor,bilinmiyor,300_m2_ve_ustu,3_oda,bilinmiyor,1_banyo,yok,yok,yok,dusuk,yok,yok,yok,2_3_Milyon_TL_Arasi
Hatay,Dortyol,Satilik,11_15_arasi,1,bilinmiyor,bilinmiyor,yok,var,var,yok,yok,yok,yok,yok,yok,yok,yok,yok,yok,yok,yok,yok,yok,yok,yok,yok,yok,yok,yok,yok,yok,yok,yok,yok,yok,yok,kademe_5,bilinmiyor,kotu,bilinmiyor,100_125_m2,3_oda,alcak_1_3_kat,1_banyo,yok,yok,yok,dusuk,yok,yok,yok,3_4_Milyon_TL_Arasi
Hatay,Dortyol,Satilik,16_20_arasi,5,Klima,bilinmiyor,yok,var,yok,var,var,var,yok,yok,yok,yok,yok,yok,yok,yok,yok,yok,yok,yok,yok,yok,yok,yok,yok,yok,yok,yok,yok,yok,yok,yok,kademe_5,normal,normal,kotu,100_125_m2,3_oda,orta_4_7_kat,1_banyo,yok,yok,yok,dusuk,yok,dusuk,yok,2_3_Milyon_TL_Arasi
Tokat,Merkez,Satilik,0,4,Kombi,bilinmiyor,yok,var,var,var,yok,var,yok,var,var,yok,var,yok,yok,yok,yok,yok,yok,yok,yok,yok,yok,yok,var,yok,yok,var,yok,yok,yok,yok,kademe_5,iyi,bilinmiyor,bilinmiyor,150_200_m2,5_oda,orta_4_7_kat,2_banyo,yok,yok,yok,dusuk,dusuk,orta,yok,7_Bucuk_10_Milyon_TL_Arasi
Hatay,Iskenderun,Satilik,26_30_arasi,4,isitma_yok_elektrik,bilinmiyor,yok,var,yok,yok,yok,yok,yok,yok,yok,yok,var,yok,yok,yok,yok,yok,yok,yok,yok,yok,yok,yok,yok,yok,yok,yok,yok,yok,yok,yok,kademe_5,kotu,kotu,kotu,75_100_m2,3_oda,orta_4_7_kat,1_banyo,yok,yok,yok,dusuk,yok,yok,yok,1_5_2_Milyon_TL_Arasi
Hatay,Erzin,Satilik,1_5_arasi,2,Kombi,bilinmiyor,yok,var,var,var,yok,yok,var,var,yok,yok,var,var,yok,yok,yok,yok,yok,yok,yok,yok,yok,yok,var,yok,yok,var,yok,yok,yok,yok,kademe_5,bilinmiyor,iyi,kotu,150_200_m2,4_oda,orta_4_7_kat,1_banyo,dusuk,yok,yok,dusuk,orta,yuksek,yok,3_4_Milyon_TL_Arasi
Kahramanmaras,Dulkadiroglu,Satilik,11_15_arasi,Bahce,Kombi,bilinmiyor,yok,yok,yok,var,yok,var,var,var,var,yok,yok,yok,yok,yok,yok,yok,yok,yok,yok,yok,yok,yok,yok,yok,yok,yok,yok,yok,var,yok,kademe_5,bilinmiyor,kotu,bilinmiyor,100_125_m2,4_oda,bilinmiyor,1_banyo,yok,dusuk,yok,dusuk,dusuk,orta,yok,3_4_Milyon_TL_Arasi
Hatay,Iskenderun,Satilik,0,Zemin,Klima,bilinmiyor,yok,yok,yok,yok,yok,yok,yok,yok,yok,yok,yok,yok,yok,yok,yok,yok,yok,yok,yok,yok,yok,yok,yok,yok,yok,yok,yok,yok,yok,yok,kademe_5,kotu,bilinmiyor,kotu,0_50_m2,2_oda,orta_4_7_kat,1_banyo,yok,yok,yok,dusuk,yok,dusuk,yok,1_5_2_Milyon_TL_Arasi
Hatay,Kirikhan,Satilik,16_20_arasi,Bahce,Soba,bilinmiyor,yok,var,yok,yok,yok,var,var,var,var,yok,yok,yok,yok,yok,yok,yok,yok,yok,yok,yok,yok,yok,yok,yok,yok,yok,yok,yok,yok,yok,kademe_5,bilinmiyor,kotu,bilinmiyor,150_200_m2,4_oda,bilinmiyor,1_banyo,yok,yok,yok,dusuk,yok,yok,yok,3_4_Milyon_TL_Arasi
Hatay,Belen,Satilik,16_20_arasi,bilinmiyor,Kombi_Dogalgaz,bilinmiyor,yok,var,yok,var,yok,var,var,var,var,yok,var,var,yok,var,yok,yok,yok,yok,yok,yok,var,var,var,yok,yok,var,yok,yok,yok,var,kademe_5,normal,bilinmiyor,bilinmiyor,200_300_m2,6_oda,orta_4_7_kat,2_banyo,dusuk,dusuk,dusuk,orta,orta,yuksek,yok,10_Milyon_TL_Ustu
Yozgat,Merkez,Satilik,1_5_arasi,Bahce,Kombi,bilinmiyor,yok,var,var,var,var,yok,yok,yok,var,yok,yok,yok,yok,yok,yok,yok,yok,yok,yok,yok,yok,yok,yok,yok,yok,yok,yok,yok,yok,yok,kademe_5,normal,bilinmiyor,bilinmiyor,0_50_m2,2_oda,orta_4_7_kat,1_banyo,yok,yok,yok,dusuk,yok,yok,yok,1_5_Milyon_TL_Alti
Nigde,Merkez,Satilik,0,Zemin,Kombi,bilinmiyor,yok,var,var,var,yok,yok,var,yok,var,yok,yok,yok,yok,yok,yok,yok,yok,yok,yok,yok,yok,yok,var,yok,yok,var,yok,yok,yok,yok,kademe_5,bilinmiyor,bilinmiyor,bilinmiyor,125_150_m2,4_oda,yuksek_8_15_kat,1_banyo,yok,yok,yok,dusuk,orta,orta,yok,4_5_Milyon_TL_Arasi
Hatay,Antakya,Satilik,11_15_arasi,6,Kombi_Dogalgaz,bilinmiyor,yok,yok,var,yok,yok,var,yok,var,yok,yok,yok,yok,yok,yok,yok,yok,yok,yok,yok,yok,yok,yok,yok,yok,yok,yok,yok,yok,yok,yok,kademe_5,normal,kotu,kotu,75_100_m2,3_oda,orta_4_7_kat,1_banyo,yok,yok,yok,dusuk,yok,yok,yok,1_5_Milyon_TL_Alti
Hatay,Iskenderun,Satilik,1_5_arasi,14,Kombi,bilinmiyor,yok,var,var,var,var,var,yok,yok,yok,yok,var,var,yok,var,var,yok,yok,yok,yok,yok,yok,yok,var,yok,yok,var,yok,yok,yok,yok,kademe_5,iyi,bilinmiyor,bilinmiyor,150_200_m2,4_oda,yuksek_8_15_kat,2_banyo,dusuk,dusuk,dusuk,dusuk,orta,yuksek,yok,5_7_Bucuk_Milyon_TL_Arasi
Hatay,Antakya,Satilik,11_15_arasi,3,Kombi,bilinmiyor,yok,var,yok,var,yok,var,var,var,var,yok,yok,yok,yok,yok,yok,yok,yok,yok,yok,yok,yok,yok,yok,yok,yok,yok,yok,yok,yok,yok,kademe_5,kotu,kotu,kotu,300_m2_ve_ustu,4_oda,orta_4_7_kat,2_banyo,yok,yok,yok,dusuk,yok,yok,yok,5_7_Bucuk_Milyon_TL_Arasi
Erzurum,Yakutiye,Satilik,26_30_arasi,1,Merkezi,bilinmiyor,yok,var,yok,yok,yok,var,yok,var,var,yok,var,yok,yok,var,yok,yok,yok,yok,yok,yok,yok,yok,yok,yok,yok,var,yok,yok,yok,yok,kademe_5,normal,kotu,bilinmiyor,150_200_m2,4_oda,orta_4_7_kat,1_banyo,yok,yok,dusuk,orta,orta,yuksek,yok,2_3_Milyon_TL_Arasi
Erzurum,Palandoken,Satilik,21_25_arasi,5,Merkezi,bilinmiyor,yok,var,yok,var,yok,var,var,yok,yok,yok,var,yok,yok,yok,yok,yok,yok,yok,yok,yok,yok,yok,yok,yok,yok,var,yok,yok,yok,yok,kademe_5,kotu,kotu,kotu,150_200_m2,4_oda,orta_4_7_kat,1_banyo,yok,yok,dusuk,dusuk,orta,orta,yok,2_3_Milyon_TL_Arasi
Kahramanmaras,Onikisubat,Satilik,0,4,Kombi,bilinmiyor,yok,var,yok,var,yok,var,var,var,var,yok,yok,yok,yok,yok,yok,yok,yok,yok,yok,yok,yok,yok,yok,yok,yok,yok,yok,yok,yok,yok,kademe_5,iyi,iyi,bilinmiyor,150_200_m2,4_oda,orta_4_7_kat,2_banyo,yok,yok,yok,dusuk,yok,yok,yok,4_5_Milyon_TL_Arasi
Bartin,Merkez,Satilik,31_ve_uzeri,bilinmiyor,Kombi_Dogalgaz,bilinmiyor,yok,yok,yok,yok,yok,yok,yok,yok,yok,yok,yok,yok,yok,yok,yok,yok,yok,yok,yok,yok,yok,yok,yok,yok,yok,var,yok,yok,yok,yok,kademe_5,kotu,bilinmiyor,kotu,200_300_m2,5_oda,alcak_1_3_kat,1_banyo,yok,yok,yok,dusuk,dusuk,yok,yok,10_Milyon_TL_Ustu
Tokat,Merkez,Satilik,6_10_arasi,3,Kombi_Dogalgaz,bilinmiyor,yok,yok,yok,yok,yok,yok,var,var,yok,yok,yok,yok,yok,yok,yok,yok,yok,yok,yok,yok,yok,yok,yok,yok,yok,yok,yok,yok,yok,yok,kademe_5,iyi,normal,bilinmiyor,125_150_m2,4_oda,orta_4_7_kat,1_banyo,yok,yok,yok,yok,yok,yok,yok,4_5_Milyon_TL_Arasi
Hatay,Arsuz,Satilik,1_5_arasi,En_Ust_Kat,Kat_Kaloriferi,bilinmiyor,yok,var,yok,yok,yok,yok,yok,yok,yok,yok,var,var,yok,yok,yok,yok,yok,yok,yok,yok,yok,var,yok,yok,yok,yok,var,yok,yok,yok,kademe_5,normal,normal,bilinmiyor,200_300_m2,5_oda,orta_4_7_kat,2_banyo,dusuk,yok,yok,dusuk,yok,dusuk,yok,5_7_Bucuk_Milyon_TL_Arasi
Hatay,Dortyol,Satilik,1_5_arasi,4,Kombi,bilinmiyor,yok,var,var,var,yok,yok,yok,var,yok,yok,var,yok,yok,yok,yok,yok,yok,yok,yok,yok,yok,yok,var,yok,yok,var,yok,yok,yok,yok,kademe_5,normal,normal,iyi,100_125_m2,3_oda,orta_4_7_kat,1_banyo,dusuk,dusuk,dusuk,orta,yuksek,yuksek,yok,3_4_Milyon_TL_Arasi
Hatay,Iskenderun,Satilik,1_5_arasi,Yuksek_Giris,Kombi,bilinmiyor,yok,var,var,var,yok,var,var,var,yok,yok,yok,yok,yok,var,yok,yok,yok,yok,yok,yok,yok,yok,yok,yok,yok,var,yok,yok,yok,yok,kademe_5,iyi,normal,bilinmiyor,125_150_m2,4_oda,orta_4_7_kat,1_banyo,yok,yok,dusuk,orta,yuksek,orta,yok,2_3_Milyon_TL_Arasi
Hatay,Antakya,Satilik,6_10_arasi,Bodrum,Merkezi,bilinmiyor,yok,var,var,yok,yok,yok,yok,yok,yok,yok,yok,yok,yok,yok,yok,yok,yok,yok,yok,yok,yok,yok,yok,yok,yok,yok,yok,yok,yok,yok,kademe_5,iyi,iyi,iyi,125_150_m2,4_oda,orta_4_7_kat,1_banyo,yok,yok,dusuk,orta,orta,yok,yok,1_5_2_Milyon_TL_Arasi
Kahramanmaras,Onikisubat,Satilik,0,Bahce,Yerden_Isitma,bilinmiyor,yok,var,yok,var,yok,var,var,var,var,yok,var,var,yok,var,yok,yok,yok,yok,yok,yok,yok,yok,var,var,yok,var,yok,yok,yok,yok,kademe_5,bilinmiyor,bilinmiyor,bilinmiyor,300_m2_ve_ustu,7_oda_ve_ustu,alcak_1_3_kat,3_banyo_ve_ustu,yok,dusuk,yok,dusuk,yok,yuksek,yok,10_Milyon_TL_Ustu
Hatay,Iskenderun,Satilik,0,3,isitma_yok,bilinmiyor,yok,var,var,var,yok,yok,yok,yok,yok,yok,yok,yok,yok,yok,yok,yok,yok,yok,yok,yok,yok,yok,yok,yok,yok,yok,yok,yok,yok,yok,kademe_5,bilinmiyor,normal,bilinmiyor,50_75_m2,2_oda,yuksek_8_15_kat,1_banyo,yok,yok,yok,orta,orta,yok,yok,2_3_Milyon_TL_Arasi
Tokat,Niksar,Satilik,16_20_arasi,bilinmiyor,Soba,bilinmiyor,yok,var,yok,yok,yok,yok,yok,var,var,yok,yok,yok,yok,yok,yok,yok,yok,yok,yok,yok,yok,yok,yok,yok,yok,var,yok,yok,yok,yok,kademe_5,normal,normal,kotu,200_300_m2,7_oda_ve_ustu,orta_4_7_kat,2_banyo,yok,yok,yok,dusuk,yok,orta,yok,3_4_Milyon_TL_Arasi
Hatay,Iskenderun,Satilik,6_10_arasi,En_Ust_Kat,Kombi_Elektrik,bilinmiyor,yok,var,var,var,yok,var,var,var,var,yok,var,var,yok,yok,yok,yok,yok,yok,yok,yok,yok,var,var,yok,yok,var,var,yok,yok,yok,kademe_5,normal,bilinmiyor,kotu,300_m2_ve_ustu,5_oda,orta_4_7_kat,2_banyo,dusuk,yok,yok,orta,orta,dusuk,yok,5_7_Bucuk_Milyon_TL_Arasi
Hatay,Defne,Satilik,6_10_arasi,Bahce,Kombi_Dogalgaz,bilinmiyor,yok,yok,var,var,yok,var,yok,var,yok,yok,yok,yok,yok,yok,yok,yok,yok,yok,yok,yok,yok,yok,yok,yok,yok,yok,yok,yok,yok,yok,kademe_5,normal,normal,bilinmiyor,100_125_m2,3_oda,orta_4_7_kat,1_banyo,yok,yok,yok,dusuk,yok,yok,yok,1_5_Milyon_TL_Alti
Hatay,Defne,Satilik,6_10_arasi,2,Kombi,bilinmiyor,yok,var,var,var,yok,var,var,yok,yok,yok,var,yok,yok,yok,yok,yok,yok,yok,yok,yok,yok,yok,var,yok,yok,yok,yok,yok,yok,yok,kademe_5,iyi,normal,normal,125_150_m2,3_oda,orta_4_7_kat,1_banyo,yok,yok,dusuk,orta,orta,yuksek,yok,1_5_2_Milyon_TL_Arasi
Tokat,Merkez,Satilik,6_10_arasi,Bodrum,Merkezi,bilinmiyor,yok,var,var,var,yok,yok,yok,var,yok,yok,var,yok,yok,yok,yok,yok,yok,yok,yok,yok,yok,yok,yok,yok,yok,var,yok,yok,yok,yok,kademe_5,kotu,bilinmiyor,bilinmiyor,75_100_m2,3_oda,yuksek_8_15_kat,1_banyo,yok,yok,yok,dusuk,yok,dusuk,yok,3_4_Milyon_TL_Arasi
Osmaniye,Merkez,Satilik,16_20_arasi,8,Kombi,bilinmiyor,yok,var,var,yok,yok,yok,yok,yok,yok,yok,yok,yok,yok,yok,yok,yok,yok,yok,yok,yok,yok,yok,yok,yok,yok,yok,yok,yok,yok,yok,kademe_5,normal,normal,bilinmiyor,150_200_m2,4_oda,yuksek_8_15_kat,1_banyo,yok,yok,yok,dusuk,yok,yok,yok,2_3_Milyon_TL_Arasi
Hatay,Dortyol,Satilik,6_10_arasi,10,Kombi_Dogalgaz,bilinmiyor,yok,yok,yok,yok,yok,yok,yok,yok,var,yok,yok,yok,yok,yok,yok,yok,yok,yok,yok,yok,yok,yok,yok,yok,yok,yok,yok,yok,yok,yok,kademe_5,iyi,normal,bilinmiyor,150_200_m2,5_oda,yuksek_8_15_kat,2_banyo,yok,yok,yok,dusuk,yok,yok,yok,4_5_Milyon_TL_Arasi
Hatay,Iskenderun,Satilik,0,5,Klima,bilinmiyor,yok,var,var,var,yok,yok,yok,yok,yok,yok,yok,yok,yok,yok,yok,yok,yok,yok,yok,yok,yok,yok,yok,yok,yok,yok,yok,yok,yok,yok,kademe_5,bilinmiyor,bilinmiyor,kotu,75_100_m2,3_oda,orta_4_7_kat,1_banyo,yok,yok,yok,yok,yok,dusuk,yok,2_3_Milyon_TL_Arasi
Hatay,Reyhanli,Satilik,6_10_arasi,Bodrum,Kombi_Dogalgaz,bilinmiyor,yok,yok,var,yok,yok,var,yok,yok,yok,yok,yok,yok,yok,yok,yok,yok,yok,yok,yok,yok,yok,yok,yok,yok,yok,yok,yok,yok,yok,yok,kademe_5,kotu,bilinmiyor,bilinmiyor,150_200_m2,5_oda,orta_4_7_kat,1_banyo,dusuk,yok,yok,dusuk,dusuk,orta,yok,1_5_Milyon_TL_Alti
Tokat,Niksar,Satilik,6_10_arasi,Yuksek_Giris,Kombi_Dogalgaz,bilinmiyor,yok,yok,yok,yok,yok,var,var,var,var,yok,yok,yok,yok,yok,yok,yok,yok,yok,yok,yok,yok,yok,yok,yok,yok,yok,yok,yok,yok,yok,kademe_5,normal,normal,kotu,150_200_m2,4_oda,orta_4_7_kat,1_banyo,yok,yok,yok,dusuk,yok,yok,yok,3_4_Milyon_TL_Arasi
Nigde,Merkez,Satilik,0,Giris,Kombi_Dogalgaz,bilinmiyor,yok,var,var,var,yok,yok,var,var,var,yok,yok,yok,yok,yok,yok,yok,yok,yok,yok,yok,yok,yok,yok,yok,yok,yok,yok,yok,yok,yok,kademe_5,bilinmiyor,normal,iyi,75_100_m2,3_oda,orta_4_7_kat,2_banyo,yok,yok,yok,dusuk,yok,yok,yok,4_5_Milyon_TL_Arasi
Tokat,Merkez,Satilik,21_25_arasi,4,Kombi,bilinmiyor,yok,var,var,var,yok,yok,yok,yok,yok,yok,yok,yok,yok,yok,yok,yok,yok,yok,yok,yok,yok,yok,yok,yok,yok,yok,yok,yok,yok,yok,kademe_5,iyi,normal,bilinmiyor,200_300_m2,6_oda,orta_4_7_kat,2_banyo,yok,yok,yok,yok,yok,dusuk,yok,5_7_Bucuk_Milyon_TL_Arasi
Hatay,Payas,Satilik,1_5_arasi,1,Kombi,bilinmiyor,yok,var,var,var,yok,yok,var,var,var,yok,var,yok,yok,yok,yok,yok,yok,yok,yok,yok,yok,yok,var,yok,yok,var,yok,yok,yok,yok,kademe_5,normal,bilinmiyor,normal,100_125_m2,3_oda,orta_4_7_kat,1_banyo,yok,yok,yok,dusuk,orta,orta,yok,2_3_Milyon_TL_Arasi
Hatay,Iskenderun,Satilik,26_30_arasi,Ara_Kat,Klima,bilinmiyor,yok,var,var,yok,yok,var,var,yok,yok,yok,var,yok,yok,var,yok,yok,yok,yok,yok,yok,yok,var,var,yok,yok,var,yok,yok,yok,yok,kademe_5,iyi,normal,kotu,125_150_m2,4_oda,orta_4_7_kat,1_banyo,yok,yok,yok,dusuk,dusuk,yuksek,yok,3_4_Milyon_TL_Arasi
Yozgat,Merkez,Satilik,21_25_arasi,En_Ust_Kat,Kombi_Dogalgaz,bilinmiyor,yok,var,yok,var,yok,yok,yok,yok,yok,yok,yok,yok,yok,var,yok,yok,yok,yok,yok,yok,yok,yok,yok,yok,yok,yok,yok,yok,yok,yok,kademe_5,normal,kotu,bilinmiyor,125_150_m2,4_oda,orta_4_7_kat,1_banyo,yok,yok,yok,yok,dusuk,yuksek,yok,2_3_Milyon_TL_Arasi
Hatay,Iskenderun,Satilik,11_15_arasi,En_Ust_Kat,Kat_Kaloriferi,bilinmiyor,yok,var,var,yok,yok,var,var,yok,yok,yok,var,var,yok,var,yok,yok,yok,yok,yok,yok,yok,yok,yok,yok,yok,yok,yok,yok,var,yok,kademe_5,iyi,normal,bilinmiyor,300_m2_ve_ustu,7_oda_ve_ustu,orta_4_7_kat,3_banyo_ve_ustu,dusuk,orta,dusuk,dusuk,yok,yuksek,yok,10_Milyon_TL_Ustu
Erzurum,Palandoken,Satilik,1_5_arasi,Giris,Merkezi,bilinmiyor,yok,var,var,var,var,yok,yok,yok,var,yok,var,yok,yok,yok,yok,yok,yok,yok,yok,yok,yok,yok,yok,yok,yok,var,yok,yok,yok,yok,kademe_5,iyi,iyi,normal,0_50_m2,2_oda,yuksek_8_15_kat,1_banyo,dusuk,yok,dusuk,orta,yuksek,yuksek,yok,1_5_2_Milyon_TL_Arasi
Hatay,Dortyol,Satilik,16_20_arasi,Bahce,Klima,bilinmiyor,yok,var,yok,var,yok,var,var,var,var,yok,yok,yok,yok,yok,yok,yok,yok,yok,var,yok,yok,var,var,var,yok,yok,yok,yok,yok,yok,kademe_5,kotu,bilinmiyor,bilinmiyor,300_m2_ve_ustu,4_oda,alcak_1_3_kat,2_banyo,yok,yok,yok,dusuk,yok,orta,yok,10_Milyon_TL_Ustu
Hatay,Dortyol,Satilik,6_10_arasi,Bahce,isitma_yok,bilinmiyor,yok,var,yok,var,yok,var,var,var,var,yok,yok,yok,yok,yok,yok,yok,yok,yok,yok,yok,yok,yok,var,yok,yok,yok,var,yok,yok,yok,kademe_5,kotu,kotu,normal,200_300_m2,2_oda,orta_4_7_kat,2_banyo,yok,yok,yok,yok,yok,yok,yok,3_4_Milyon_TL_Arasi
Hatay,Antakya,Satilik,6_10_arasi,1,Kombi_Dogalgaz,bilinmiyor,yok,yok,var,yok,yok,var,var,var,yok,yok,yok,yok,yok,yok,yok,yok,yok,yok,yok,yok,yok,yok,yok,yok,yok,yok,yok,yok,yok,yok,kademe_5,iyi,normal,normal,150_200_m2,4_oda,orta_4_7_kat,1_banyo,yok,yok,yok,dusuk,yok,yok,yok,3_4_Milyon_TL_Arasi
Kahramanmaras,Onikisubat,Satilik,0,2,Merkezi,bilinmiyor,yok,var,yok,yok,yok,var,var,var,var,yok,yok,yok,yok,yok,yok,yok,yok,yok,yok,yok,yok,yok,yok,yok,yok,yok,yok,yok,yok,yok,kademe_5,bilinmiyor,iyi,bilinmiyor,200_300_m2,6_oda,yuksek_8_15_kat,2_banyo,yok,yok,yok,dusuk,yok,yok,yok,10_Milyon_TL_Ustu
Hatay,Payas,Satilik,21_25_arasi,5,isitma_yok,bilinmiyor,yok,yok,var,var,yok,yok,var,yok,var,yok,yok,yok,yok,yok,yok,yok,yok,yok,yok,yok,yok,yok,yok,yok,yok,yok,yok,yok,yok,yok,kademe_5,kotu,normal,kotu,50_75_m2,2_oda,orta_4_7_kat,1_banyo,yok,yok,dusuk,orta,orta,dusuk,yok,1_5_Milyon_TL_Alti
Tokat,Merkez,Satilik,26_30_arasi,bilinmiyor,Kombi_Dogalgaz,bilinmiyor,yok,var,yok,yok,yok,var,var,var,yok,yok,yok,yok,yok,yok,yok,yok,yok,yok,yok,yok,yok,yok,yok,yok,yok,yok,yok,yok,yok,yok,kademe_5,kotu,kotu,bilinmiyor,200_300_m2,7_oda_ve_ustu,alcak_1_3_kat,2_banyo,yok,yok,yok,yok,yok,yok,yok,7_Bucuk_10_Milyon_TL_Arasi
Hatay,Payas,Satilik,11_15_arasi,Bahce,Klima,bilinmiyor,yok,var,yok,yok,yok,var,var,var,var,yok,var,yok,yok,yok,yok,yok,yok,yok,yok,yok,yok,yok,yok,yok,yok,var,yok,yok,yok,yok,kademe_5,kotu,normal,normal,300_m2_ve_ustu,4_oda,bilinmiyor,1_banyo,dusuk,dusuk,yok,dusuk,dusuk,orta,yok,5_7_Bucuk_Milyon_TL_Arasi
Bartin,Merkez,Satilik,6_10_arasi,En_Ust_Kat,Kombi_Dogalgaz,bilinmiyor,yok,var,var,var,yok,yok,yok,yok,yok,yok,var,var,yok,var,yok,yok,yok,yok,yok,yok,yok,yok,yok,yok,yok,var,yok,yok,var,yok,kademe_5,bilinmiyor,kotu,bilinmiyor,200_300_m2,6_oda,orta_4_7_kat,3_banyo_ve_ustu,dusuk,dusuk,yok,dusuk,yok,yuksek,yok,5_7_Bucuk_Milyon_TL_Arasi
Hatay,Hassa,Satilik,11_15_arasi,Giris,Kombi_Dogalgaz,bilinmiyor,yok,yok,yok,yok,var,yok,yok,var,yok,yok,yok,yok,yok,yok,yok,yok,yok,yok,yok,yok,yok,yok,yok,yok,yok,yok,yok,yok,yok,yok,kademe_5,normal,normal,kotu,0_50_m2,2_oda,orta_4_7_kat,1_banyo,yok,yok,yok,dusuk,yok,yok,yok,1_5_Milyon_TL_Alti
Hatay,Defne,Satilik,1_5_arasi,4,Kombi_Dogalgaz,bilinmiyor,yok,yok,yok,var,yok,yok,yok,var,yok,yok,yok,yok,yok,yok,yok,yok,yok,yok,yok,yok,yok,yok,yok,yok,yok,yok,yok,yok,yok,yok,kademe_5,kotu,bilinmiyor,normal,150_200_m2,4_oda,orta_4_7_kat,1_banyo,yok,yok,yok,dusuk,yok,yok,yok,4_5_Milyon_TL_Arasi
Kahramanmaras,Dulkadiroglu,Satilik,11_15_arasi,Giris,Kombi,bilinmiyor,yok,yok,yok,var,yok,yok,var,yok,var,yok,yok,yok,yok,yok,yok,yok,yok,yok,yok,yok,yok,yok,yok,yok,yok,yok,yok,yok,yok,yok,kademe_5,normal,kotu,bilinmiyor,75_100_m2,2_oda,orta_4_7_kat,1_banyo,yok,yok,yok,dusuk,yok,yok,yok,1_5_Milyon_TL_Alti
Hatay,Payas,Satilik,1_5_arasi,3,Kombi,bilinmiyor,yok,var,var,var,yok,var,var,yok,var,yok,var,yok,yok,var,yok,yok,yok,yok,yok,yok,yok,yok,var,yok,yok,yok,yok,yok,yok,yok,kademe_5,bilinmiyor,bilinmiyor,bilinmiyor,100_125_m2,3_oda,orta_4_7_kat,1_banyo,dusuk,dusuk,dusuk,dusuk,orta,yuksek,yok,2_3_Milyon_TL_Arasi
Tokat,Merkez,Satilik,1_5_arasi,6,Kombi_Dogalgaz,bilinmiyor,yok,var,var,var,yok,var,var,var,yok,yok,var,var,yok,var,yok,yok,yok,yok,yok,yok,yok,yok,var,yok,yok,var,yok,yok,yok,yok,kademe_5,normal,normal,bilinmiyor,125_150_m2,4_oda,orta_4_7_kat,1_banyo,yok,yok,yok,dusuk,yok,yuksek,yok,4_5_Milyon_TL_Arasi
Hatay,Iskenderun,Satilik,1_5_arasi,2,Klima,bilinmiyor,yok,yok,var,yok,var,var,yok,var,var,yok,var,yok,yok,yok,yok,yok,yok,yok,yok,yok,yok,yok,var,yok,yok,var,yok,yok,yok,yok,kademe_5,normal,bilinmiyor,bilinmiyor,0_50_m2,2_oda,orta_4_7_kat,1_banyo,yok,yok,yok,dusuk,dusuk,yuksek,yok,1_5_Milyon_TL_Alti
Tokat,Zile,Satilik,26_30_arasi,Bahce,Soba,bilinmiyor,yok,var,yok,yok,yok,yok,yok,yok,yok,yok,yok,yok,yok,yok,yok,yok,yok,yok,yok,yok,yok,yok,yok,yok,yok,yok,yok,yok,yok,yok,kademe_5,bilinmiyor,bilinmiyor,bilinmiyor,300_m2_ve_ustu,7_oda_ve_ustu,bilinmiyor,2_banyo,yok,yok,yok,dusuk,yok,yok,yok,7_Bucuk_10_Milyon_TL_Arasi
Hatay,Iskenderun,Satilik,11_15_arasi,3,Kombi,bilinmiyor,yok,var,var,yok,yok,var,var,var,var,yok,var,var,yok,var,yok,yok,yok,yok,yok,yok,yok,var,var,yok,yok,var,yok,yok,yok,yok,kademe_5,kotu,bilinmiyor,kotu,200_300_m2,5_oda,orta_4_7_kat,2_banyo,yok,dusuk,yok,dusuk,orta,yuksek,yok,5_7_Bucuk_Milyon_TL_Arasi
Hatay,Antakya,Satilik,6_10_arasi,1,Kombi,bilinmiyor,yok,var,yok,var,yok,var,var,var,yok,yok,yok,yok,yok,yok,yok,yok,yok,yok,yok,yok,yok,yok,var,yok,yok,var,yok,yok,yok,yok,kademe_5,bilinmiyor,bilinmiyor,bilinmiyor,150_200_m2,4_oda,alcak_1_3_kat,1_banyo,yok,dusuk,dusuk,orta,yuksek,orta,yok,2_3_Milyon_TL_Arasi
Hatay,Iskenderun,Satilik,1_5_arasi,Yuksek_Giris,Klima,bilinmiyor,yok,var,yok,yok,yok,yok,yok,yok,yok,yok,yok,yok,yok,yok,yok,yok,yok,yok,yok,yok,yok,yok,yok,yok,yok,yok,yok,yok,yok,yok,kademe_5,normal,bilinmiyor,iyi,0_50_m2,2_oda,orta_4_7_kat,1_banyo,yok,yok,yok,dusuk,orta,dusuk,yok,1_5_2_Milyon_TL_Arasi
Tokat,Turhal,Satilik,26_30_arasi,bilinmiyor,Kombi_Dogalgaz,bilinmiyor,yok,yok,yok,yok,yok,yok,yok,yok,yok,yok,yok,yok,yok,yok,yok,yok,yok,yok,yok,yok,yok,yok,yok,yok,yok,yok,yok,yok,yok,yok,kademe_5,kotu,normal,bilinmiyor,300_m2_ve_ustu,7_oda_ve_ustu,orta_4_7_kat,1_banyo,yok,yok,yok,dusuk,yok,yok,yok,4_5_Milyon_TL_Arasi
Kahramanmaras,Onikisubat,Satilik,16_20_arasi,Bahce,Kombi,bilinmiyor,yok,var,yok,yok,yok,yok,yok,var,var,yok,var,yok,yok,yok,yok,yok,yok,yok,yok,yok,yok,yok,var,yok,yok,var,yok,yok,yok,yok,kademe_5,normal,bilinmiyor,normal,200_300_m2,4_oda,bilinmiyor,1_banyo,yok,yok,yok,dusuk,orta,orta,yok,3_4_Milyon_TL_Arasi
Tokat,Niksar,Satilik,6_10_arasi,3,Kombi,bilinmiyor,yok,var,yok,yok,yok,var,yok,var,yok,yok,var,var,yok,yok,yok,yok,yok,yok,yok,yok,yok,yok,var,yok,yok,yok,yok,yok,yok,yok,kademe_5,iyi,kotu,bilinmiyor,150_200_m2,5_oda,orta_4_7_kat,2_banyo,yok,yok,yok,dusuk,orta,dusuk,yok,4_5_Milyon_TL_Arasi
Nigde,Merkez,Satilik,1_5_arasi,13,Merkezi,bilinmiyor,yok,var,var,var,yok,yok,var,var,var,yok,var,var,yok,var,yok,yok,yok,yok,yok,yok,yok,yok,yok,yok,yok,var,yok,yok,yok,yok,kademe_5,normal,iyi,bilinmiyor,150_200_m2,4_oda,yuksek_8_15_kat,2_banyo,dusuk,dusuk,dusuk,dusuk,yuksek,yuksek,yok,5_7_Bucuk_Milyon_TL_Arasi
Nigde,Merkez,Satilik,16_20_arasi,5,Merkezi,bilinmiyor,yok,var,var,var,yok,yok,var,var,var,yok,var,yok,yok,var,yok,yok,yok,yok,yok,yok,yok,yok,yok,yok,yok,var,yok,yok,yok,yok,kademe_5,iyi,normal,iyi,150_200_m2,4_oda,yuksek_8_15_kat,1_banyo,orta,dusuk,yok,dusuk,orta,yuksek,yok,5_7_Bucuk_Milyon_TL_Arasi
Tokat,Niksar,Satilik,1_5_arasi,6,Kombi_Dogalgaz,bilinmiyor,yok,var,yok,var,yok,yok,yok,yok,yok,yok,var,yok,yok,yok,yok,yok,yok,yok,yok,yok,yok,yok,var,yok,yok,var,yok,yok,yok,yok,kademe_5,iyi,bilinmiyor,bilinmiyor,125_150_m2,4_oda,orta_4_7_kat,1_banyo,yok,yok,yok,orta,dusuk,yuksek,yok,4_5_Milyon_TL_Arasi
Hatay,Iskenderun,Satilik,6_10_arasi,En_Ust_Kat,Klima,bilinmiyor,yok,var,var,yok,yok,var,var,yok,yok,yok,var,yok,yok,yok,yok,yok,yok,yok,yok,yok,yok,yok,yok,yok,yok,var,yok,yok,var,yok,kademe_5,normal,normal,normal,150_200_m2,4_oda,orta_4_7_kat,2_banyo,yok,yok,yok,dusuk,dusuk,dusuk,yok,3_4_Milyon_TL_Arasi
Osmaniye,Duzici,Satilik,1_5_arasi,2,Kombi,bilinmiyor,yok,yok,yok,var,var,yok,var,var,var,yok,var,var,yok,var,var,yok,yok,yok,yok,yok,yok,yok,var,yok,yok,var,yok,yok,yok,yok,kademe_5,kotu,kotu,iyi,75_100_m2,3_oda,alcak_1_3_kat,1_banyo,dusuk,orta,dusuk,orta,yuksek,yuksek,yok,1_5_Milyon_TL_Alti
Hatay,Iskenderun,Satilik,31_ve_uzeri,Bahce,isitma_yok,bilinmiyor,yok,var,yok,yok,yok,yok,yok,yok,yok,yok,yok,yok,yok,yok,yok,yok,yok,yok,yok,yok,yok,yok,yok,yok,yok,yok,yok,yok,yok,yok,kademe_5,bilinmiyor,normal,bilinmiyor,200_300_m2,3_oda,bilinmiyor,1_banyo,yok,yok,yok,dusuk,yok,yok,yok,1_5_Milyon_TL_Alti
Hatay,Belen,Satilik,26_30_arasi,1,Kombi_Dogalgaz,bilinmiyor,yok,var,yok,yok,yok,yok,yok,yok,yok,yok,yok,yok,yok,yok,yok,yok,yok,yok,yok,yok,yok,yok,yok,yok,yok,yok,yok,yok,yok,yok,kademe_5,kotu,kotu,bilinmiyor,100_125_m2,4_oda,orta_4_7_kat,1_banyo,yok,yok,yok,dusuk,yok,yok,yok,1_5_2_Milyon_TL_Arasi
Tokat,Merkez,Satilik,21_25_arasi,Ara_Kat,Kombi_Dogalgaz,bilinmiyor,yok,var,yok,yok,yok,var,var,var,yok,yok,var,yok,yok,yok,yok,yok,yok,yok,yok,yok,yok,yok,yok,yok,yok,var,yok,yok,yok,yok,kademe_5,bilinmiyor,kotu,bilinmiyor,100_125_m2,3_oda,orta_4_7_kat,1_banyo,yok,yok,yok,dusuk,orta,orta,yok,3_4_Milyon_TL_Arasi
Yozgat,Merkez,Satilik,1_5_arasi,3,Kombi,bilinmiyor,yok,var,var,var,var,yok,var,var,yok,yok,yok,yok,yok,yok,yok,yok,yok,yok,yok,yok,yok,yok,yok,yok,yok,yok,yok,yok,yok,yok,kademe_5,iyi,normal,iyi,75_100_m2,3_oda,yuksek_8_15_kat,1_banyo,yok,yok,yok,dusuk,yok,yok,yok,2_3_Milyon_TL_Arasi
Hatay,Dortyol,Satilik,1_5_arasi,3,Kombi,bilinmiyor,yok,var,var,var,yok,yok,var,var,var,yok,var,var,yok,yok,yok,yok,yok,yok,var,var,yok,yok,var,yok,yok,yok,yok,yok,yok,yok,kademe_5,normal,iyi,bilinmiyor,150_200_m2,5_oda,orta_4_7_kat,2_banyo,dusuk,dusuk,dusuk,orta,yuksek,yuksek,yok,7_Bucuk_10_Milyon_TL_Arasi
Hatay,Dortyol,Satilik,1_5_arasi,1,Kombi,bilinmiyor,yok,var,var,var,yok,var,var,var,yok,yok,var,var,yok,yok,yok,yok,yok,yok,yok,yok,yok,yok,var,yok,yok,var,yok,yok,yok,yok,kademe_5,iyi,normal,bilinmiyor,150_200_m2,4_oda,orta_4_7_kat,2_banyo,dusuk,dusuk,dusuk,orta,yuksek,yuksek,yok,4_5_Milyon_TL_Arasi
Nigde,Merkez,Satilik,0,Yuksek_Giris,Kombi_Dogalgaz,bilinmiyor,yok,var,var,var,yok,yok,var,var,var,yok,var,var,yok,var,yok,yok,yok,yok,yok,yok,yok,yok,yok,yok,yok,var,yok,yok,yok,yok,kademe_5,iyi,normal,bilinmiyor,75_100_m2,3_oda,orta_4_7_kat,1_banyo,dusuk,dusuk,yok,dusuk,orta,yuksek,yok,4_5_Milyon_TL_Arasi
Hatay,Dortyol,Satilik,11_15_arasi,2,Klima,bilinmiyor,yok,yok,yok,yok,var,yok,yok,yok,var,yok,yok,yok,yok,yok,yok,yok,yok,yok,yok,yok,yok,yok,yok,yok,yok,yok,yok,yok,yok,yok,kademe_5,kotu,bilinmiyor,normal,50_75_m2,2_oda,orta_4_7_kat,1_banyo,yok,yok,yok,dusuk,yok,dusuk,yok,1_5_Milyon_TL_Alti
Hatay,Erzin,Satilik,6_10_arasi,3,Kombi,bilinmiyor,yok,var,var,var,yok,var,var,yok,yok,yok,var,yok,yok,yok,yok,yok,yok,yok,yok,yok,yok,yok,yok,yok,yok,var,yok,yok,yok,yok,kademe_5,kotu,normal,normal,125_150_m2,3_oda,orta_4_7_kat,1_banyo,yok,yok,yok,dusuk,orta,orta,yok,2_3_Milyon_TL_Arasi
Nigde,Merkez,Satilik,11_15_arasi,1,Merkezi,bilinmiyor,yok,var,var,var,yok,yok,yok,yok,yok,yok,yok,yok,yok,yok,yok,yok,yok,yok,yok,yok,yok,yok,yok,yok,yok,yok,yok,yok,yok,yok,kademe_5,kotu,kotu,bilinmiyor,125_150_m2,4_oda,yuksek_8_15_kat,1_banyo,yok,yok,yok,dusuk,yok,yok,yok,3_4_Milyon_TL_Arasi
Tokat,Merkez,Satilik,1_5_arasi,12,Merkezi,bilinmiyor,yok,var,var,var,yok,yok,yok,yok,yok,yok,yok,yok,yok,yok,yok,yok,yok,yok,yok,yok,yok,yok,yok,yok,yok,yok,yok,yok,yok,yok,kademe_5,iyi,normal,bilinmiyor,150_200_m2,5_oda,cok_yuksek_16_ustu_kat,2_banyo,yok,yok,yok,yok,yok,yok,yok,5_7_Bucuk_Milyon_TL_Arasi
Erzurum,Yakutiye,Satilik,6_10_arasi,4,Merkezi,bilinmiyor,yok,var,var,var,yok,var,yok,var,yok,yok,var,var,yok,yok,yok,yok,yok,yok,yok,yok,yok,yok,yok,yok,yok,var,yok,yok,yok,yok,kademe_5,iyi,bilinmiyor,normal,150_200_m2,4_oda,yuksek_8_15_kat,2_banyo,dusuk,yok,dusuk,dusuk,orta,orta,yok,3_4_Milyon_TL_Arasi
Nigde,Merkez,Satilik,0,2,Kombi,bilinmiyor,yok,var,var,var,yok,yok,yok,yok,yok,yok,yok,yok,yok,yok,yok,yok,yok,yok,yok,yok,yok,yok,yok,yok,yok,yok,yok,yok,yok,yok,kademe_5,iyi,normal,bilinmiyor,75_100_m2,3_oda,orta_4_7_kat,1_banyo,yok,yok,yok,dusuk,yok,yok,yok,4_5_Milyon_TL_Arasi
Hatay,Defne,Satilik,0,1,Kat_Kaloriferi,bilinmiyor,yok,yok,var,var,yok,yok,yok,yok,yok,yok,yok,yok,yok,yok,yok,yok,yok,yok,yok,yok,yok,yok,var,yok,yok,var,yok,yok,yok,yok,kademe_5,iyi,iyi,bilinmiyor,100_125_m2,4_oda,orta_4_7_kat,1_banyo,yok,yok,yok,dusuk,dusuk,yok,yok,5_7_Bucuk_Milyon_TL_Arasi
Hatay,Arsuz,Satilik,6_10_arasi,1,Klima,bilinmiyor,yok,var,yok,var,yok,var,var,var,var,yok,var,var,yok,yok,yok,yok,yok,yok,yok,yok,yok,var,var,yok,yok,yok,yok,yok,yok,yok,kademe_5,iyi,bilinmiyor,iyi,150_200_m2,4_oda,orta_4_7_kat,2_banyo,yok,yok,dusuk,dusuk,yok,yuksek,yok,3_4_Milyon_TL_Arasi
Hatay,Payas,Satilik,6_10_arasi,Bahce,Kombi,bilinmiyor,yok,var,var,var,yok,var,var,yok,yok,yok,var,yok,yok,var,yok,yok,yok,yok,yok,yok,yok,yok,var,yok,yok,yok,yok,yok,yok,yok,kademe_5,iyi,kotu,bilinmiyor,100_125_m2,3_oda,orta_4_7_kat,1_banyo,yok,dusuk,dusuk,dusuk,orta,yuksek,yok,2_3_Milyon_TL_Arasi
Hatay,Dortyol,Satilik,6_10_arasi,2,Kombi,bilinmiyor,yok,var,yok,var,yok,yok,var,var,var,yok,yok,yok,yok,yok,yok,yok,yok,yok,yok,yok,yok,yok,yok,yok,yok,yok,yok,yok,yok,yok,kademe_5,bilinmiyor,normal,bilinmiyor,150_200_m2,4_oda,orta_4_7_kat,2_banyo,dusuk,yok,yok,dusuk,orta,yok,yok,3_4_Milyon_TL_Arasi
Hatay,Payas,Satilik,6_10_arasi,4,Kombi_Dogalgaz,bilinmiyor,yok,yok,var,var,yok,yok,var,var,var,yok,var,var,yok,yok,yok,yok,yok,yok,yok,yok,yok,var,var,yok,yok,yok,yok,yok,yok,yok,kademe_5,normal,normal,normal,125_150_m2,4_oda,orta_4_7_kat,2_banyo,dusuk,dusuk,yok,dusuk,dusuk,orta,yok,2_3_Milyon_TL_Arasi
Hatay,Belen,Satilik,1_5_arasi,3,Kombi,bilinmiyor,yok,var,yok,yok,yok,yok,yok,yok,yok,yok,yok,yok,yok,yok,yok,yok,yok,yok,yok,yok,yok,yok,yok,yok,yok,yok,yok,yok,yok,yok,kademe_5,iyi,kotu,bilinmiyor,300_m2_ve_ustu,6_oda,orta_4_7_kat,2_banyo,yok,yok,yok,dusuk,yok,yok,yok,5_7_Bucuk_Milyon_TL_Arasi
Hatay,Arsuz,Satilik,6_10_arasi,Ara_Kat,Kombi_Elektrik,bilinmiyor,yok,var,var,yok,yok,yok,yok,var,var,yok,var,yok,yok,yok,yok,yok,yok,yok,yok,yok,yok,var,var,yok,yok,var,yok,yok,yok,yok,kademe_5,iyi,bilinmiyor,kotu,100_125_m2,3_oda,orta_4_7_kat,1_banyo,yok,yok,yok,orta,dusuk,yuksek,yok,2_3_Milyon_TL_Arasi
Erzurum,Palandoken,Satilik,11_15_arasi,Bodrum,Kombi_Dogalgaz,bilinmiyor,yok,yok,yok,yok,yok,var,var,yok,yok,yok,yok,yok,yok,yok,yok,yok,yok,yok,yok,yok,yok,yok,yok,yok,yok,yok,yok,yok,yok,yok,kademe_5,kotu,normal,kotu,125_150_m2,4_oda,orta_4_7_kat,1_banyo,yok,yok,yok,dusuk,yok,yok,yok,1_5_Milyon_TL_Alti
Hatay,Antakya,Satilik,1_5_arasi,1,Kombi,bilinmiyor,yok,var,var,var,yok,yok,yok,yok,yok,yok,yok,yok,yok,yok,yok,yok,yok,yok,yok,yok,yok,yok,yok,yok,yok,yok,yok,yok,yok,yok,kademe_5,normal,normal,kotu,100_125_m2,3_oda,orta_4_7_kat,1_banyo,yok,yok,yok,orta,orta,dusuk,yok,2_3_Milyon_TL_Arasi
Hatay,Arsuz,Satilik,16_20_arasi,Ara_Kat,Klima,bilinmiyor,yok,yok,yok,yok,var,var,var,yok,var,yok,yok,yok,yok,yok,yok,yok,yok,yok,yok,yok,yok,var,yok,yok,yok,yok,yok,yok,yok,yok,kademe_5,iyi,iyi,iyi,100_125_m2,3_oda,orta_4_7_kat,1_banyo,yok,yok,yok,dusuk,yok,dusuk,yok,5_7_Bucuk_Milyon_TL_Arasi
Yozgat,Merkez,Satilik,1_5_arasi,1,Kombi_Dogalgaz,bilinmiyor,yok,var,var,var,var,yok,yok,yok,yok,yok,var,yok,yok,var,yok,yok,yok,yok,yok,yok,yok,yok,yok,yok,yok,var,yok,yok,yok,yok,kademe_5,iyi,iyi,iyi,50_75_m2,3_oda,orta_4_7_kat,1_banyo,dusuk,yok,dusuk,dusuk,orta,yuksek,yok,1_5_2_Milyon_TL_Arasi
Tokat,Merkez,Satilik,0,6,Kombi,bilinmiyor,yok,var,var,var,yok,yok,yok,var,yok,yok,yok,yok,yok,yok,yok,yok,yok,yok,yok,yok,yok,yok,yok,yok,yok,yok,yok,yok,yok,yok,kademe_5,bilinmiyor,bilinmiyor,bilinmiyor,125_150_m2,4_oda,orta_4_7_kat,2_banyo,yok,yok,yok,dusuk,yok,dusuk,yok,5_7_Bucuk_Milyon_TL_Arasi
Kahramanmaras,Onikisubat,Satilik,1_5_arasi,3,Kombi,bilinmiyor,yok,var,var,var,yok,yok,var,var,var,yok,var,yok,yok,var,yok,yok,yok,yok,yok,yok,yok,yok,var,yok,yok,var,yok,yok,yok,yok,kademe_5,normal,iyi,bilinmiyor,100_125_m2,3_oda,yuksek_8_15_kat,1_banyo,dusuk,yok,dusuk,dusuk,yuksek,yuksek,yok,2_3_Milyon_TL_Arasi
Kahramanmaras,Onikisubat,Satilik,0,2,Kombi,bilinmiyor,yok,yok,yok,var,yok,var,var,var,var,yok,yok,yok,yok,yok,yok,yok,yok,yok,yok,yok,yok,yok,yok,yok,yok,yok,yok,yok,yok,yok,kademe_5,kotu,normal,bilinmiyor,50_75_m2,2_oda,orta_4_7_kat,1_banyo,yok,yok,yok,dusuk,yok,yok,yok,2_3_Milyon_TL_Arasi
Tokat,Merkez,Satilik,0,2,Kombi,bilinmiyor,yok,var,var,var,yok,yok,yok,yok,yok,yok,yok,yok,yok,yok,yok,yok,yok,yok,yok,yok,yok,yok,yok,yok,yok,yok,yok,yok,yok,yok,kademe_5,bilinmiyor,bilinmiyor,bilinmiyor,125_150_m2,4_oda,orta_4_7_kat,1_banyo,yok,yok,yok,dusuk,yok,yok,yok,5_7_Bucuk_Milyon_TL_Arasi
Hatay,Belen,Satilik,1_5_arasi,bilinmiyor,Kombi,bilinmiyor,yok,var,yok,yok,yok,yok,yok,yok,yok,yok,yok,yok,yok,yok,yok,yok,yok,yok,yok,yok,yok,yok,yok,yok,yok,yok,yok,yok,yok,yok,kademe_5,normal,bilinmiyor,bilinmiyor,200_300_m2,5_oda,orta_4_7_kat,3_banyo_ve_ustu,yok,yok,yok,dusuk,yok,yok,yok,10_Milyon_TL_Ustu
Hatay,Defne,Satilik,1_5_arasi,1,Kombi,bilinmiyor,yok,var,var,var,yok,var,yok,var,var,yok,var,yok,yok,var,yok,yok,yok,yok,yok,yok,yok,yok,var,yok,yok,var,yok,yok,yok,yok,kademe_5,kotu,bilinmiyor,normal,125_150_m2,4_oda,orta_4_7_kat,1_banyo,yok,dusuk,dusuk,orta,yuksek,yuksek,yok,1_5_2_Milyon_TL_Arasi
Hatay,Antakya,Satilik,11_15_arasi,2,Soba,bilinmiyor,yok,yok,var,var,yok,var,var,var,var,yok,yok,yok,yok,yok,yok,yok,yok,yok,yok,yok,yok,yok,yok,yok,yok,yok,yok,yok,yok,yok,kademe_5,kotu,bilinmiyor,kotu,300_m2_ve_ustu,7_oda_ve_ustu,alcak_1_3_kat,3_banyo_ve_ustu,yok,yok,yok,dusuk,dusuk,yok,yok,7_Bucuk_10_Milyon_TL_Arasi
Hatay,Iskenderun,Satilik,6_10_arasi,3,isitma_yok,bilinmiyor,yok,yok,var,var,yok,yok,var,yok,var,yok,var,yok,yok,yok,yok,yok,yok,yok,yok,yok,yok,yok,var,yok,yok,yok,yok,yok,yok,yok,kademe_5,normal,bilinmiyor,kotu,0_50_m2,1_oda,orta_4_7_kat,1_banyo,dusuk,yok,dusuk,orta,orta,orta,yok,1_5_Milyon_TL_Alti
Kahramanmaras,Onikisubat,Satilik,1_5_arasi,6,Merkezi,bilinmiyor,yok,var,yok,var,yok,var,yok,var,yok,yok,yok,var,yok,yok,yok,yok,yok,yok,yok,yok,yok,yok,yok,yok,yok,var,yok,yok,yok,yok,kademe_5,normal,normal,normal,150_200_m2,5_oda,yuksek_8_15_kat,2_banyo,yok,dusuk,dusuk,dusuk,dusuk,dusuk,yok,5_7_Bucuk_Milyon_TL_Arasi
Nigde,Merkez,Satilik,11_15_arasi,4,Merkezi,bilinmiyor,yok,var,var,var,yok,var,yok,yok,var,yok,yok,yok,yok,yok,yok,yok,yok,yok,yok,yok,yok,yok,var,yok,yok,var,yok,yok,yok,yok,kademe_5,bilinmiyor,kotu,bilinmiyor,100_125_m2,4_oda,orta_4_7_kat,1_banyo,yok,yok,yok,dusuk,yok,yok,yok,3_4_Milyon_TL_Arasi
Erzurum,Palandoken,Satilik,21_25_arasi,2,Merkezi,bilinmiyor,yok,yok,yok,yok,yok,var,var,yok,yok,yok,var,yok,yok,yok,yok,yok,yok,yok,yok,yok,yok,yok,yok,yok,yok,yok,yok,yok,yok,yok,kademe_5,iyi,kotu,normal,125_150_m2,3_oda,orta_4_7_kat,1_banyo,yok,yok,yok,dusuk,dusuk,yok,yok,2_3_Milyon_TL_Arasi
Tokat,Niksar,Satilik,16_20_arasi,Kot_2,Dogalgaz_Sobasi,bilinmiyor,yok,var,yok,var,yok,yok,var,var,yok,yok,var,yok,yok,var,yok,yok,yok,yok,yok,yok,yok,yok,var,yok,yok,var,yok,yok,yok,yok,kademe_5,iyi,kotu,bilinmiyor,125_150_m2,3_oda,orta_4_7_kat,1_banyo,yok,yok,yok,orta,dusuk,yuksek,yok,2_3_Milyon_TL_Arasi
Hatay,Hassa,Satilik,11_15_arasi,3,Kombi_Dogalgaz,bilinmiyor,yok,yok,yok,yok,var,yok,yok,yok,yok,yok,yok,yok,yok,yok,yok,yok,yok,yok,yok,yok,yok,yok,yok,yok,yok,yok,yok,yok,yok,yok,kademe_5,normal,normal,kotu,0_50_m2,2_oda,orta_4_7_kat,1_banyo,yok,yok,yok,dusuk,yok,yok,yok,1_5_Milyon_TL_Alti
Hatay,Iskenderun,Satilik,1_5_arasi,5,Kombi_Dogalgaz,bilinmiyor,yok,var,var,yok,yok,var,yok,var,yok,yok,var,var,yok,var,yok,yok,yok,yok,yok,yok,yok,yok,yok,yok,yok,yok,yok,yok,yok,yok,kademe_5,normal,normal,bilinmiyor,200_300_m2,4_oda,orta_4_7_kat,2_banyo,dusuk,yok,dusuk,dusuk,yok,yuksek,orta,5_7_Bucuk_Milyon_TL_Arasi
Hatay,Antakya,Satilik,1_5_arasi,1,Kombi,bilinmiyor,yok,var,yok,var,var,var,var,var,yok,yok,var,yok,yok,var,yok,yok,yok,yok,yok,yok,yok,yok,yok,yok,yok,var,yok,yok,yok,yok,kademe_5,iyi,normal,bilinmiyor,50_75_m2,3_oda,orta_4_7_kat,1_banyo,dusuk,dusuk,dusuk,orta,yuksek,yuksek,yok,1_5_2_Milyon_TL_Arasi
Hatay,Dortyol,Satilik,0,1,Kombi,bilinmiyor,yok,var,var,var,yok,var,yok,var,yok,yok,var,yok,yok,yok,yok,yok,yok,yok,yok,yok,yok,yok,yok,yok,yok,var,yok,yok,yok,yok,kademe_5,kotu,normal,kotu,100_125_m2,3_oda,orta_4_7_kat,1_banyo,yok,dusuk,dusuk,dusuk,orta,orta,yok,4_5_Milyon_TL_Arasi
Hatay,Arsuz,Satilik,16_20_arasi,Bahce,Klima,bilinmiyor,yok,yok,yok,var,yok,var,var,var,var,yok,var,yok,yok,yok,yok,yok,yok,yok,var,yok,yok,yok,var,yok,yok,yok,yok,var,yok,yok,kademe_5,normal,normal,bilinmiyor,200_300_m2,4_oda,alcak_1_3_kat,2_banyo,yok,yok,yok,dusuk,yok,yuksek,yok,10_Milyon_TL_Ustu
Tokat,Merkez,Satilik,6_10_arasi,5,Kombi,bilinmiyor,yok,var,var,var,yok,var,var,var,yok,yok,yok,yok,yok,yok,yok,yok,yok,yok,yok,yok,yok,yok,yok,yok,yok,yok,yok,yok,yok,yok,kademe_5,iyi,bilinmiyor,bilinmiyor,300_m2_ve_ustu,7_oda_ve_ustu,orta_4_7_kat,3_banyo_ve_ustu,yok,yok,yok,yok,yok,yok,yok,7_Bucuk_10_Milyon_TL_Arasi
Hatay,Arsuz,Satilik,11_15_arasi,Bahce,Klima,bilinmiyor,yok,var,yok,var,var,var,var,var,var,yok,var,var,yok,yok,yok,yok,yok,yok,var,yok,yok,yok,var,yok,yok,yok,var,yok,yok,yok,kademe_5,kotu,normal,bilinmiyor,300_m2_ve_ustu,5_oda,alcak_1_3_kat,2_banyo,dusuk,dusuk,dusuk,orta,orta,yuksek,yok,10_Milyon_TL_Ustu
Hatay,Iskenderun,Satilik,31_ve_uzeri,bilinmiyor,Klima,bilinmiyor,yok,yok,yok,yok,yok,var,var,yok,yok,yok,yok,yok,yok,yok,yok,yok,yok,yok,yok,yok,yok,yok,yok,yok,yok,yok,yok,var,yok,yok,kademe_5,bilinmiyor,bilinmiyor,bilinmiyor,200_300_m2,4_oda,alcak_1_3_kat,1_banyo,yok,yok,yok,dusuk,yok,dusuk,yok,7_Bucuk_10_Milyon_TL_Arasi
Hatay,Defne,Satilik,16_20_arasi,3,Soba,bilinmiyor,yok,yok,yok,var,yok,yok,yok,yok,yok,yok,yok,yok,yok,yok,yok,yok,yok,yok,yok,yok,yok,yok,yok,yok,yok,yok,yok,yok,yok,yok,kademe_5,kotu,normal,kotu,300_m2_ve_ustu,7_oda_ve_ustu,orta_4_7_kat,1_banyo,yok,yok,yok,dusuk,yok,yok,yok,7_Bucuk_10_Milyon_TL_Arasi
Nigde,Merkez,Satilik,11_15_arasi,5,Kat_Kaloriferi,bilinmiyor,yok,var,var,var,yok,var,yok,var,var,yok,var,var,yok,yok,yok,yok,yok,yok,yok,yok,yok,yok,var,var,yok,var,yok,yok,yok,yok,kademe_5,iyi,normal,normal,150_200_m2,4_oda,yuksek_8_15_kat,2_banyo,orta,yok,yok,dusuk,orta,yuksek,yok,5_7_Bucuk_Milyon_TL_Arasi
Hatay,Kirikhan,Satilik,21_25_arasi,Bahce,Klima,bilinmiyor,yok,var,yok,yok,yok,yok,yok,yok,yok,yok,yok,yok,yok,yok,yok,yok,yok,yok,yok,yok,yok,yok,yok,yok,yok,yok,yok,yok,yok,yok,kademe_5,kotu,bilinmiyor,normal,300_m2_ve_ustu,4_oda,bilinmiyor,1_banyo,yok,yok,yok,dusuk,yok,dusuk,yok,5_7_Bucuk_Milyon_TL_Arasi
Hatay,Antakya,Satilik,6_10_arasi,3,isitma_yok,bilinmiyor,yok,var,yok,var,var,yok,yok,var,yok,yok,var,yok,yok,var,yok,yok,yok,yok,yok,yok,yok,yok,yok,yok,yok,var,yok,yok,yok,yok,kademe_5,iyi,iyi,iyi,50_75_m2,2_oda,orta_4_7_kat,1_banyo,yok,yok,dusuk,orta,yuksek,yuksek,yok,1_5_Milyon_TL_Alti
Hatay,Payas,Satilik,6_10_arasi,1,Kombi_Dogalgaz,bilinmiyor,yok,var,var,var,yok,yok,var,var,yok,yok,var,var,yok,var,yok,yok,yok,yok,yok,yok,yok,var,yok,yok,yok,yok,yok,yok,yok,yok,kademe_5,normal,iyi,kotu,150_200_m2,4_oda,orta_4_7_kat,2_banyo,yok,dusuk,yok,dusuk,orta,yuksek,yok,3_4_Milyon_TL_Arasi
Hatay,Defne,Satilik,11_15_arasi,Ara_Kat,Kat_Kaloriferi,bilinmiyor,yok,yok,yok,var,yok,yok,yok,yok,yok,yok,yok,yok,yok,yok,yok,yok,yok,yok,yok,yok,yok,yok,yok,yok,yok,yok,yok,yok,yok,yok,kademe_5,normal,kotu,kotu,200_300_m2,4_oda,orta_4_7_kat,3_banyo_ve_ustu,yok,yok,yok,dusuk,yok,yok,yok,3_4_Milyon_TL_Arasi
Bartin,Merkez,Satilik,6_10_arasi,Bahce,Kombi,bilinmiyor,yok,var,yok,var,yok,var,var,var,var,yok,var,var,yok,var,yok,yok,yok,yok,var,yok,yok,yok,var,yok,yok,var,yok,yok,yok,yok,kademe_5,bilinmiyor,bilinmiyor,bilinmiyor,300_m2_ve_ustu,6_oda,orta_4_7_kat,3_banyo_ve_ustu,dusuk,dusuk,dusuk,orta,dusuk,yuksek,yok,10_Milyon_TL_Ustu
Tokat,Niksar,Satilik,0,2,Yerden_Isitma,bilinmiyor,yok,var,yok,yok,yok,yok,yok,var,yok,yok,yok,yok,yok,yok,yok,yok,yok,yok,yok,yok,yok,yok,yok,yok,yok,yok,yok,yok,yok,yok,kademe_5,normal,normal,bilinmiyor,50_75_m2,2_oda,orta_4_7_kat,1_banyo,yok,yok,yok,dusuk,yok,yok,yok,2_3_Milyon_TL_Arasi
Hatay,Iskenderun,Satilik,1_5_arasi,Giris,Kombi,bilinmiyor,yok,yok,var,var,yok,var,yok,var,yok,yok,yok,yok,yok,yok,yok,yok,yok,yok,yok,yok,yok,yok,yok,yok,yok,yok,yok,yok,yok,yok,kademe_5,iyi,normal,iyi,200_300_m2,3_oda,orta_4_7_kat,2_banyo,yok,yok,yok,dusuk,yok,yok,yok,5_7_Bucuk_Milyon_TL_Arasi
Hatay,Defne,Satilik,1_5_arasi,Bahce,isi_pompasi,bilinmiyor,yok,yok,yok,var,yok,var,var,var,var,yok,var,yok,yok,yok,yok,yok,yok,yok,yok,yok,yok,yok,var,yok,yok,var,yok,yok,yok,var,kademe_5,normal,iyi,kotu,300_m2_ve_ustu,6_oda,orta_4_7_kat,2_banyo,yok,orta,dusuk,orta,yuksek,yuksek,yok,10_Milyon_TL_Ustu
Hatay,Belen,Satilik,6_10_arasi,3,Kombi_Dogalgaz,bilinmiyor,yok,var,var,yok,yok,var,yok,yok,var,yok,yok,yok,yok,yok,yok,yok,yok,yok,yok,yok,yok,yok,yok,yok,yok,yok,yok,yok,yok,yok,kademe_5,normal,normal,iyi,75_100_m2,3_oda,orta_4_7_kat,1_banyo,yok,yok,yok,dusuk,yok,yok,yok,2_3_Milyon_TL_Arasi
Hatay,Antakya,Satilik,6_10_arasi,3,Kombi_Dogalgaz,bilinmiyor,yok,var,yok,var,yok,var,var,var,var,yok,yok,yok,yok,yok,yok,yok,yok,yok,yok,yok,yok,yok,yok,yok,yok,yok,var,yok,yok,yok,kademe_5,iyi,normal,bilinmiyor,300_m2_ve_ustu,5_oda,orta_4_7_kat,2_banyo,yok,yok,yok,dusuk,yok,yok,yok,4_5_Milyon_TL_Arasi
Nigde,Merkez,Satilik,21_25_arasi,4,Kombi,bilinmiyor,yok,var,yok,var,yok,yok,yok,yok,yok,yok,yok,yok,yok,yok,yok,yok,yok,yok,yok,yok,yok,yok,yok,yok,yok,var,yok,yok,yok,yok,kademe_5,kotu,bilinmiyor,kotu,125_150_m2,4_oda,orta_4_7_kat,1_banyo,yok,yok,yok,dusuk,yok,dusuk,yok,2_3_Milyon_TL_Arasi
Hatay,Iskenderun,Satilik,16_20_arasi,Ara_Kat,Kat_Kaloriferi,bilinmiyor,yok,var,var,yok,yok,yok,yok,yok,yok,yok,yok,var,yok,yok,yok,yok,yok,yok,yok,yok,yok,yok,yok,yok,yok,yok,yok,yok,yok,yok,kademe_5,normal,kotu,bilinmiyor,150_200_m2,5_oda,alcak_1_3_kat,2_banyo,dusuk,dusuk,yok,orta,orta,yuksek,yok,7_Bucuk_10_Milyon_TL_Arasi
Yozgat,Merkez,Satilik,1_5_arasi,3,Kombi_Dogalgaz,bilinmiyor,yok,yok,var,yok,yok,var,var,var,yok,yok,yok,yok,yok,yok,yok,yok,yok,yok,yok,yok,yok,yok,yok,yok,yok,yok,yok,yok,yok,yok,kademe_5,iyi,bilinmiyor,bilinmiyor,75_100_m2,3_oda,yuksek_8_15_kat,1_banyo,yok,yok,yok,dusuk,yok,yok,yok,2_3_Milyon_TL_Arasi
Tokat,Turhal,Satilik,21_25_arasi,Yuksek_Giris,Kombi,bilinmiyor,yok,var,var,var,yok,var,var,var,yok,yok,var,yok,yok,yok,yok,yok,yok,yok,yok,yok,yok,yok,yok,yok,yok,yok,yok,yok,yok,yok,kademe_5,normal,kotu,kotu,125_150_m2,4_oda,orta_4_7_kat,1_banyo,yok,yok,yok,dusuk,orta,dusuk,yok,2_3_Milyon_TL_Arasi
Tokat,Niksar,Satilik,6_10_arasi,bilinmiyor,Soba,bilinmiyor,yok,var,yok,var,var,var,var,var,var,yok,yok,yok,yok,var,yok,yok,yok,yok,yok,yok,yok,yok,var,yok,yok,yok,var,var,yok,yok,kademe_5,bilinmiyor,bilinmiyor,bilinmiyor,300_m2_ve_ustu,7_oda_ve_ustu,alcak_1_3_kat,2_banyo,yok,yok,yok,dusuk,yok,orta,yok,5_7_Bucuk_Milyon_TL_Arasi
Hatay,Iskenderun,Satilik,1_5_arasi,1,Kombi_Dogalgaz,bilinmiyor,yok,var,var,var,yok,yok,yok,yok,yok,yok,yok,yok,yok,yok,yok,yok,yok,yok,yok,yok,yok,yok,yok,yok,yok,yok,yok,yok,yok,yok,kademe_5,normal,normal,bilinmiyor,125_150_m2,4_oda,orta_4_7_kat,1_banyo,yok,yok,yok,orta,yok,orta,yok,5_7_Bucuk_Milyon_TL_Arasi
Hatay,Iskenderun,Satilik,6_10_arasi,Ara_Kat,Kombi_Dogalgaz,bilinmiyor,yok,yok,var,var,yok,var,yok,var,yok,yok,var,yok,yok,yok,yok,yok,yok,yok,yok,yok,yok,var,yok,yok,yok,var,yok,yok,yok,yok,kademe_5,kotu,bilinmiyor,bilinmiyor,75_100_m2,2_oda,yuksek_8_15_kat,1_banyo,orta,yok,yok,dusuk,dusuk,dusuk,yok,4_5_Milyon_TL_Arasi
Yozgat,Merkez,Satilik,0,8,Kombi_Dogalgaz,bilinmiyor,yok,var,var,var,yok,yok,yok,yok,yok,yok,yok,yok,yok,yok,yok,yok,yok,yok,yok,yok,yok,yok,yok,yok,yok,yok,yok,yok,yok,yok,kademe_5,iyi,normal,iyi,50_75_m2,3_oda,yuksek_8_15_kat,1_banyo,yok,yok,yok,dusuk,dusuk,yuksek,yok,1_5_2_Milyon_TL_Arasi
Hatay,Kirikhan,Satilik,0,3,Kombi,bilinmiyor,yok,var,var,var,yok,var,var,yok,yok,yok,var,var,yok,yok,yok,yok,yok,yok,yok,yok,yok,yok,var,yok,yok,yok,yok,yok,yok,yok,kademe_5,normal,normal,kotu,125_150_m2,4_oda,orta_4_7_kat,2_banyo,dusuk,yok,yok,dusuk,orta,dusuk,yok,3_4_Milyon_TL_Arasi
Hatay,Belen,Satilik,21_25_arasi,bilinmiyor,belirtilmemis_elektrik,bilinmiyor,yok,var,yok,yok,yok,yok,yok,yok,yok,yok,yok,yok,yok,yok,yok,yok,yok,yok,yok,yok,yok,yok,yok,yok,yok,yok,yok,var,yok,yok,kademe_5,bilinmiyor,bilinmiyor,bilinmiyor,300_m2_ve_ustu,4_oda,alcak_1_3_kat,1_banyo,yok,yok,yok,dusuk,dusuk,yok,yok,7_Bucuk_10_Milyon_TL_Arasi
Kahramanmaras,Dulkadiroglu,Satilik,11_15_arasi,Giris,Kombi,bilinmiyor,yok,var,var,var,yok,yok,var,var,yok,yok,var,yok,yok,var,yok,yok,yok,yok,yok,yok,yok,yok,yok,yok,yok,var,yok,yok,yok,yok,kademe_5,kotu,kotu,kotu,100_125_m2,3_oda,orta_4_7_kat,1_banyo,dusuk,dusuk,dusuk,orta,yuksek,yuksek,yok,2_3_Milyon_TL_Arasi
Hatay,Belen,Satilik,6_10_arasi,6,Kombi,bilinmiyor,yok,var,var,var,yok,var,var,var,var,yok,var,var,yok,yok,yok,yok,yok,yok,var,yok,var,yok,var,yok,yok,var,yok,yok,yok,yok,kademe_5,iyi,normal,bilinmiyor,150_200_m2,4_oda,yuksek_8_15_kat,2_banyo,dusuk,dusuk,dusuk,orta,orta,yuksek,yok,4_5_Milyon_TL_Arasi
Nigde,Merkez,Satilik,0,8,Merkezi,bilinmiyor,yok,var,var,var,yok,yok,var,var,yok,yok,var,yok,yok,var,yok,yok,yok,var,yok,yok,yok,yok,yok,yok,yok,var,yok,yok,yok,yok,kademe_5,iyi,iyi,bilinmiyor,125_150_m2,4_oda,yuksek_8_15_kat,1_banyo,orta,dusuk,yok,dusuk,yuksek,yuksek,yok,5_7_Bucuk_Milyon_TL_Arasi
Bartin,Merkez,Satilik,0,2,Merkezi,bilinmiyor,yok,var,var,var,yok,yok,yok,var,yok,yok,var,var,yok,var,yok,yok,yok,yok,yok,yok,yok,yok,yok,yok,yok,yok,yok,yok,yok,yok,kademe_5,iyi,normal,normal,100_125_m2,4_oda,orta_4_7_kat,2_banyo,orta,yok,yok,orta,dusuk,yuksek,yok,4_5_Milyon_TL_Arasi
Bartin,Amasra,Satilik,0,1,Kombi,bilinmiyor,yok,var,yok,var,yok,yok,yok,yok,yok,yok,yok,yok,yok,yok,yok,yok,yok,yok,yok,yok,yok,yok,yok,yok,yok,yok,yok,yok,yok,yok,kademe_5,iyi,bilinmiyor,normal,0_50_m2,2_oda,orta_4_7_kat,1_banyo,yok,yok,yok,dusuk,yok,yok,yok,3_4_Milyon_TL_Arasi
Tokat,Pazar,Satilik,0,4,Kombi_Dogalgaz,bilinmiyor,yok,var,var,var,yok,yok,var,var,yok,yok,var,yok,yok,var,yok,yok,yok,yok,yok,yok,yok,yok,yok,yok,yok,yok,yok,yok,yok,yok,kademe_5,bilinmiyor,iyi,bilinmiyor,100_125_m2,4_oda,orta_4_7_kat,1_banyo,yok,dusuk,yok,dusuk,yok,yuksek,yok,4_5_Milyon_TL_Arasi
Tokat,Pazar,Satilik,0,Yuksek_Giris,Kombi_Dogalgaz,bilinmiyor,yok,var,yok,var,yok,yok,var,var,yok,yok,var,yok,yok,var,yok,yok,yok,yok,yok,yok,yok,yok,yok,yok,yok,yok,yok,yok,yok,yok,kademe_5,bilinmiyor,bilinmiyor,bilinmiyor,50_75_m2,2_oda,alcak_1_3_kat,1_banyo,yok,dusuk,yok,dusuk,yok,yuksek,yok,2_3_Milyon_TL_Arasi
Hatay,Defne,Satilik,11_15_arasi,Yuksek_Giris,Kombi_Dogalgaz,bilinmiyor,yok,yok,var,var,yok,yok,var,var,yok,yok,yok,yok,yok,yok,yok,yok,yok,yok,yok,yok,yok,yok,yok,yok,yok,yok,yok,yok,yok,yok,kademe_5,normal,normal,kotu,100_125_m2,3_oda,orta_4_7_kat,1_banyo,yok,yok,yok,dusuk,yok,yok,yok,1_5_2_Milyon_TL_Arasi
Hatay,Iskenderun,Satilik,0,2,Klima,bilinmiyor,yok,var,var,var,yok,yok,yok,yok,yok,yok,var,yok,yok,var,yok,yok,yok,yok,yok,yok,yok,yok,yok,yok,yok,var,yok,yok,yok,yok,kademe_5,bilinmiyor,bilinmiyor,bilinmiyor,50_75_m2,2_oda,orta_4_7_kat,1_banyo,dusuk,dusuk,yok,orta,orta,yuksek,yok,2_3_Milyon_TL_Arasi
Hatay,Antakya,Satilik,6_10_arasi,1,Kombi_Dogalgaz,bilinmiyor,yok,yok,var,yok,yok,yok,yok,yok,yok,yok,yok,yok,yok,yok,yok,yok,yok,yok,yok,yok,yok,yok,yok,yok,yok,yok,yok,yok,yok,yok,kademe_5,normal,normal,normal,125_150_m2,4_oda,orta_4_7_kat,bilinmiyor,yok,yok,yok,dusuk,yok,yok,yok,3_4_Milyon_TL_Arasi
Nigde,Merkez,Satilik,31_ve_uzeri,1,Soba,bilinmiyor,yok,var,yok,var,yok,var,yok,var,yok,yok,yok,yok,yok,yok,yok,yok,yok,yok,yok,yok,yok,yok,yok,yok,yok,yok,yok,yok,yok,yok,kademe_5,kotu,kotu,bilinmiyor,100_125_m2,3_oda,orta_4_7_kat,1_banyo,yok,yok,yok,dusuk,yok,yok,yok,2_3_Milyon_TL_Arasi
Hatay,Iskenderun,Satilik,6_10_arasi,En_Ust_Kat,Kat_Kaloriferi,bilinmiyor,yok,yok,var,yok,yok,yok,yok,yok,yok,yok,yok,yok,yok,yok,yok,yok,yok,yok,yok,yok,yok,yok,yok,yok,yok,yok,yok,yok,yok,yok,kademe_5,kotu,bilinmiyor,normal,125_150_m2,4_oda,orta_4_7_kat,2_banyo,yok,yok,yok,dusuk,yok,yok,yok,4_5_Milyon_TL_Arasi
Tokat,Merkez,Satilik,26_30_arasi,3,Kombi,bilinmiyor,yok,var,yok,var,yok,var,yok,yok,var,yok,yok,yok,yok,var,yok,yok,yok,yok,yok,yok,yok,yok,yok,yok,yok,var,yok,yok,yok,yok,kademe_5,kotu,normal,bilinmiyor,50_75_m2,3_oda,orta_4_7_kat,1_banyo,yok,yok,dusuk,orta,yuksek,orta,yok,2_3_Milyon_TL_Arasi
Hatay,Dortyol,Satilik,6_10_arasi,1,Kombi,bilinmiyor,yok,var,var,var,yok,yok,var,var,yok,yok,var,var,yok,yok,yok,yok,yok,yok,yok,yok,yok,yok,yok,yok,yok,var,yok,yok,yok,yok,kademe_5,normal,normal,kotu,150_200_m2,4_oda,orta_4_7_kat,2_banyo,yok,yok,dusuk,dusuk,yuksek,orta,yok,3_4_Milyon_TL_Arasi
Hatay,Arsuz,Satilik,1_5_arasi,En_Ust_Kat,Klima,bilinmiyor,yok,var,yok,yok,var,yok,var,var,var,yok,yok,yok,yok,yok,yok,yok,yok,yok,yok,yok,yok,var,yok,yok,yok,yok,var,yok,yok,yok,kademe_5,normal,bilinmiyor,normal,125_150_m2,4_oda,orta_4_7_kat,1_banyo,yok,yok,yok,dusuk,yok,dusuk,yok,4_5_Milyon_TL_Arasi
Hatay,Kirikhan,Satilik,11_15_arasi,2,Kombi,bilinmiyor,yok,var,var,var,yok,yok,var,var,yok,yok,yok,yok,yok,yok,yok,yok,yok,yok,yok,yok,yok,yok,yok,yok,yok,yok,yok,yok,yok,yok,kademe_5,normal,normal,kotu,100_125_m2,3_oda,orta_4_7_kat,1_banyo,yok,yok,yok,dusuk,yok,dusuk,yok,1_5_2_Milyon_TL_Arasi
Nigde,Merkez,Satilik,0,8,Merkezi,bilinmiyor,yok,var,var,var,yok,var,var,var,var,yok,var,var,yok,yok,yok,yok,yok,yok,yok,yok,yok,yok,var,yok,yok,var,yok,yok,yok,yok,kademe_5,bilinmiyor,bilinmiyor,bilinmiyor,125_150_m2,4_oda,yuksek_8_15_kat,2_banyo,dusuk,yok,yok,dusuk,dusuk,yuksek,yok,4_5_Milyon_TL_Arasi
Erzurum,Palandoken,Satilik,1_5_arasi,7,Merkezi,bilinmiyor,yok,var,var,var,yok,var,yok,var,yok,yok,var,var,yok,var,yok,yok,yok,yok,yok,yok,yok,yok,var,yok,yok,var,yok,yok,yok,yok,kademe_5,iyi,iyi,bilinmiyor,150_200_m2,4_oda,yuksek_8_15_kat,2_banyo,dusuk,yok,dusuk,dusuk,orta,yuksek,yok,5_7_Bucuk_Milyon_TL_Arasi
Hatay,Iskenderun,Satilik,26_30_arasi,4,Klima,bilinmiyor,yok,var,var,yok,yok,yok,yok,var,yok,yok,yok,yok,yok,yok,yok,yok,yok,yok,yok,yok,yok,yok,yok,yok,yok,yok,yok,yok,yok,yok,kademe_5,normal,normal,bilinmiyor,100_125_m2,3_oda,orta_4_7_kat,1_banyo,yok,yok,yok,dusuk,dusuk,dusuk,yok,2_3_Milyon_TL_Arasi
Hatay,Arsuz,Satilik,0,10,Kombi,bilinmiyor,yok,var,yok,yok,yok,var,var,var,yok,yok,yok,yok,yok,yok,yok,yok,yok,yok,yok,yok,yok,yok,yok,yok,yok,yok,yok,yok,yok,yok,kademe_5,bilinmiyor,bilinmiyor,bilinmiyor,200_300_m2,4_oda,yuksek_8_15_kat,2_banyo,yok,yok,yok,dusuk,yok,yok,yok,2_3_Milyon_TL_Arasi
Osmaniye,Merkez,Satilik,0,4,Kombi,bilinmiyor,yok,var,var,var,yok,yok,yok,yok,yok,yok,yok,yok,yok,yok,yok,yok,yok,yok,yok,yok,yok,yok,yok,yok,yok,yok,yok,yok,yok,yok,kademe_5,normal,normal,iyi,100_125_m2,3_oda,yuksek_8_15_kat,2_banyo,yok,yok,yok,dusuk,yok,yok,yok,3_4_Milyon_TL_Arasi
Yozgat,Merkez,Satilik,0,2,Kombi,bilinmiyor,yok,var,var,var,yok,var,var,var,var,yok,var,yok,yok,yok,yok,yok,yok,yok,yok,yok,yok,yok,var,yok,yok,var,yok,yok,yok,yok,kademe_5,bilinmiyor,bilinmiyor,bilinmiyor,75_100_m2,3_oda,orta_4_7_kat,1_banyo,yok,dusuk,yok,dusuk,orta,yuksek,yok,2_3_Milyon_TL_Arasi
Hatay,Arsuz,Satilik,6_10_arasi,2,Gunes_Enerjisi,bilinmiyor,yok,yok,var,yok,yok,yok,yok,yok,yok,yok,yok,yok,yok,yok,yok,yok,yok,yok,yok,yok,yok,yok,yok,yok,yok,yok,yok,yok,yok,yok,kademe_5,iyi,iyi,normal,150_200_m2,4_oda,orta_4_7_kat,2_banyo,yok,yok,yok,dusuk,yok,yok,yok,3_4_Milyon_TL_Arasi
Tokat,Merkez,Satilik,26_30_arasi,Giris,Kombi_Dogalgaz,bilinmiyor,yok,var,yok,yok,yok,var,var,var,yok,yok,var,yok,yok,yok,yok,yok,yok,yok,yok,yok,yok,yok,yok,yok,yok,var,yok,yok,yok,yok,kademe_5,kotu,bilinmiyor,bilinmiyor,100_125_m2,3_oda,orta_4_7_kat,1_banyo,yok,yok,yok,dusuk,orta,orta,yok,2_3_Milyon_TL_Arasi
Kahramanmaras,Onikisubat,Satilik,31_ve_uzeri,1,bilinmiyor,bilinmiyor,yok,yok,yok,yok,yok,yok,yok,yok,yok,yok,yok,yok,yok,yok,yok,yok,yok,yok,yok,yok,yok,yok,yok,yok,yok,yok,yok,yok,yok,yok,kademe_5,kotu,normal,bilinmiyor,100_125_m2,1_oda,alcak_1_3_kat,bilinmiyor,yok,yok,yok,dusuk,yok,yok,yok,1_5_Milyon_TL_Alti
Erzurum,Palandoken,Satilik,26_30_arasi,4,Merkezi,bilinmiyor,yok,var,yok,var,yok,var,var,var,yok,yok,var,yok,yok,var,yok,yok,yok,yok,yok,yok,yok,yok,var,yok,yok,var,yok,yok,yok,yok,kademe_5,kotu,kotu,kotu,125_150_m2,4_oda,orta_4_7_kat,1_banyo,yok,yok,yok,dusuk,orta,yuksek,yok,2_3_Milyon_TL_Arasi
Kahramanmaras,Onikisubat,Satilik,0,3,Kombi,bilinmiyor,yok,var,yok,var,yok,var,var,yok,var,yok,var,var,yok,yok,yok,yok,yok,yok,yok,yok,yok,yok,yok,yok,yok,var,yok,yok,yok,yok,kademe_5,iyi,normal,bilinmiyor,100_125_m2,3_oda,orta_4_7_kat,2_banyo,yok,yok,yok,dusuk,yuksek,yuksek,yok,2_3_Milyon_TL_Arasi
Hatay,Iskenderun,Satilik,26_30_arasi,bilinmiyor,Klima,bilinmiyor,yok,var,yok,var,yok,var,var,var,var,yok,var,yok,yok,yok,yok,yok,yok,yok,yok,yok,yok,var,var,yok,yok,var,yok,yok,yok,yok,kademe_5,kotu,normal,bilinmiyor,150_200_m2,6_oda,alcak_1_3_kat,2_banyo,yok,dusuk,yok,dusuk,yok,yuksek,yok,1_5_Milyon_TL_Alti
Hatay,Iskenderun,Satilik,0,5,Kombi,bilinmiyor,yok,var,var,var,yok,var,var,var,yok,yok,var,yok,yok,yok,yok,yok,yok,yok,yok,yok,yok,yok,var,yok,yok,var,var,yok,yok,yok,kademe_5,iyi,iyi,bilinmiyor,125_150_m2,4_oda,orta_4_7_kat,2_banyo,yok,yok,yok,dusuk,orta,orta,yok,4_5_Milyon_TL_Arasi
Tokat,Niksar,Satilik,1_5_arasi,1,Kombi_Dogalgaz,bilinmiyor,yok,var,var,yok,yok,yok,yok,var,yok,yok,var,yok,yok,yok,yok,yok,yok,yok,yok,yok,yok,yok,yok,yok,yok,yok,yok,yok,yok,yok,kademe_5,normal,iyi,bilinmiyor,150_200_m2,4_oda,orta_4_7_kat,2_banyo,yok,yok,yok,dusuk,orta,dusuk,yok,4_5_Milyon_TL_Arasi
Tokat,Merkez,Satilik,1_5_arasi,1,Kombi_Dogalgaz,bilinmiyor,yok,yok,var,yok,var,yok,yok,yok,var,yok,var,yok,yok,var,yok,yok,yok,yok,yok,yok,yok,yok,yok,yok,yok,yok,yok,yok,yok,yok,kademe_5,bilinmiyor,bilinmiyor,bilinmiyor,50_75_m2,2_oda,orta_4_7_kat,1_banyo,dusuk,yok,yok,yok,yok,yuksek,yok,2_3_Milyon_TL_Arasi
Hatay,Payas,Satilik,16_20_arasi,Bahce,Klima,bilinmiyor,yok,var,yok,var,yok,yok,var,var,var,yok,var,yok,yok,yok,yok,yok,yok,yok,yok,var,yok,yok,yok,yok,yok,var,yok,yok,yok,yok,kademe_5,kotu,kotu,kotu,100_125_m2,3_oda,bilinmiyor,1_banyo,yok,yok,yok,dusuk,orta,orta,yok,4_5_Milyon_TL_Arasi
Hatay,Iskenderun,Satilik,16_20_arasi,3,Kombi_Dogalgaz,bilinmiyor,yok,var,var,yok,yok,yok,var,var,yok,yok,var,yok,yok,yok,yok,yok,yok,yok,yok,yok,yok,yok,yok,yok,yok,yok,yok,yok,yok,yok,kademe_5,iyi,normal,bilinmiyor,125_150_m2,4_oda,orta_4_7_kat,1_banyo,yok,yok,yok,dusuk,yok,yuksek,yok,2_3_Milyon_TL_Arasi
Tokat,Niksar,Satilik,16_20_arasi,En_Ust_Kat,Kombi_Dogalgaz,bilinmiyor,yok,var,yok,var,yok,var,var,var,var,yok,yok,yok,yok,yok,yok,yok,yok,yok,yok,yok,yok,yok,yok,yok,yok,yok,yok,yok,yok,yok,kademe_5,kotu,normal,bilinmiyor,125_150_m2,4_oda,orta_4_7_kat,1_banyo,yok,yok,yok,dusuk,yok,dusuk,yok,2_3_Milyon_TL_Arasi
Hatay,Dortyol,Satilik,0,Bahce,Klima,bilinmiyor,yok,yok,yok,var,yok,var,var,var,var,yok,var,var,yok,var,var,yok,yok,yok,var,yok,yok,yok,var,yok,yok,var,var,yok,yok,yok,kademe_5,iyi,iyi,bilinmiyor,300_m2_ve_ustu,5_oda,alcak_1_3_kat,2_banyo,dusuk,orta,yok,orta,orta,yuksek,yok,10_Milyon_TL_Ustu
Hatay,Antakya,Satilik,6_10_arasi,En_Ust_Kat,Klima,bilinmiyor,yok,var,yok,var,var,yok,var,var,yok,yok,yok,yok,yok,yok,yok,yok,yok,yok,yok,yok,yok,yok,var,yok,yok,var,yok,yok,yok,yok,kademe_5,normal,normal,bilinmiyor,50_75_m2,3_oda,orta_4_7_kat,1_banyo,yok,yok,yok,orta,orta,yuksek,yok,1_5_Milyon_TL_Alti
Tokat,Niksar,Satilik,6_10_arasi,En_Ust_Kat,Dogalgaz_Sobasi,bilinmiyor,yok,var,yok,var,yok,yok,yok,var,yok,yok,var,yok,yok,var,yok,yok,yok,yok,yok,yok,yok,yok,var,yok,yok,var,yok,yok,yok,yok,kademe_5,kotu,kotu,bilinmiyor,100_125_m2,3_oda,orta_4_7_kat,1_banyo,yok,yok,yok,orta,orta,yok,yok,2_3_Milyon_TL_Arasi
Hatay,Belen,Satilik,11_15_arasi,Ara_Kat,Kombi_Dogalgaz,bilinmiyor,yok,var,yok,var,yok,yok,var,var,var,yok,var,var,yok,yok,yok,yok,yok,yok,yok,yok,yok,var,var,yok,yok,yok,yok,yok,yok,yok,kademe_5,normal,bilinmiyor,kotu,150_200_m2,4_oda,orta_4_7_kat,2_banyo,yok,yok,yok,orta,dusuk,dusuk,yok,3_4_Milyon_TL_Arasi
Hatay,Arsuz,Satilik,0,2,Kombi,bilinmiyor,yok,var,var,var,yok,var,var,var,var,yok,yok,yok,yok,yok,yok,yok,yok,yok,yok,yok,yok,yok,yok,yok,yok,yok,yok,yok,yok,yok,kademe_5,iyi,iyi,kotu,125_150_m2,4_oda,orta_4_7_kat,2_banyo,yok,yok,yok,dusuk,yok,yok,yok,7_Bucuk_10_Milyon_TL_Arasi
Kahramanmaras,Onikisubat,Satilik,1_5_arasi,2,Kombi,bilinmiyor,yok,var,var,var,var,var,yok,yok,var,yok,var,yok,yok,var,yok,yok,yok,yok,yok,yok,yok,yok,yok,yok,yok,yok,yok,yok,yok,yok,kademe_5,normal,normal,normal,50_75_m2,2_oda,orta_4_7_kat,1_banyo,yok,yok,yok,dusuk,yuksek,yuksek,yok,2_3_Milyon_TL_Arasi
Erzurum,Palandoken,Satilik,16_20_arasi,5,Kombi,bilinmiyor,yok,var,var,var,yok,var,yok,var,yok,yok,var,yok,yok,yok,yok,yok,yok,yok,yok,yok,yok,yok,yok,yok,yok,var,yok,yok,yok,yok,kademe_5,normal,normal,bilinmiyor,150_200_m2,5_oda,orta_4_7_kat,2_banyo,yok,yok,yok,dusuk,yuksek,yuksek,yok,3_4_Milyon_TL_Arasi
Hatay,Antakya,Satilik,6_10_arasi,4,Kombi,bilinmiyor,yok,var,var,var,yok,yok,var,var,yok,yok,yok,yok,yok,yok,yok,yok,yok,yok,yok,yok,yok,yok,var,yok,yok,var,yok,yok,yok,yok,kademe_5,normal,kotu,kotu,75_100_m2,3_oda,yuksek_8_15_kat,1_banyo,dusuk,yok,dusuk,orta,orta,orta,yok,1_5_2_Milyon_TL_Arasi
Bartin,Merkez,Satilik,6_10_arasi,3,Kombi,bilinmiyor,yok,var,var,var,yok,yok,yok,yok,yok,yok,yok,yok,yok,yok,yok,yok,yok,yok,yok,yok,yok,yok,yok,yok,yok,yok,yok,yok,yok,yok,kademe_5,normal,kotu,bilinmiyor,75_100_m2,3_oda,orta_4_7_kat,2_banyo,yok,yok,yok,dusuk,yok,yok,yok,3_4_Milyon_TL_Arasi
Tokat,Zile,Satilik,11_15_arasi,2,Kombi,bilinmiyor,yok,var,var,var,yok,yok,yok,yok,yok,yok,yok,yok,yok,yok,yok,yok,yok,yok,yok,yok,yok,yok,yok,yok,yok,yok,yok,yok,yok,yok,kademe_5,bilinmiyor,bilinmiyor,bilinmiyor,150_200_m2,5_oda,orta_4_7_kat,2_banyo,yok,yok,yok,dusuk,yok,yok,yok,4_5_Milyon_TL_Arasi
Hatay,Dortyol,Satilik,11_15_arasi,4,Kombi_Dogalgaz,bilinmiyor,yok,yok,yok,yok,yok,yok,var,var,yok,yok,yok,yok,yok,yok,yok,yok,yok,yok,yok,yok,yok,yok,yok,yok,yok,yok,yok,yok,yok,yok,kademe_5,normal,kotu,kotu,125_150_m2,4_oda,orta_4_7_kat,2_banyo,yok,yok,yok,dusuk,yok,yok,yok,2_3_Milyon_TL_Arasi
Hatay,Defne,Satilik,11_15_arasi,Yuksek_Giris,Kombi,bilinmiyor,yok,var,var,var,yok,var,var,var,yok,yok,var,yok,yok,var,yok,yok,yok,yok,yok,yok,yok,yok,yok,yok,yok,var,yok,yok,yok,yok,kademe_5,iyi,normal,iyi,150_200_m2,5_oda,orta_4_7_kat,1_banyo,yok,orta,dusuk,orta,yuksek,yuksek,yok,4_5_Milyon_TL_Arasi
Osmaniye,Merkez,Satilik,1_5_arasi,1,Kombi,bilinmiyor,yok,var,var,var,yok,var,var,yok,var,yok,var,var,yok,yok,yok,yok,yok,yok,yok,yok,yok,yok,yok,yok,yok,var,yok,yok,yok,yok,kademe_5,bilinmiyor,bilinmiyor,normal,150_200_m2,4_oda,yuksek_8_15_kat,2_banyo,dusuk,yok,yok,orta,orta,orta,yok,3_4_Milyon_TL_Arasi
Hatay,Belen,Satilik,1_5_arasi,Bahce,Klima,bilinmiyor,yok,var,yok,var,yok,yok,yok,yok,yok,yok,yok,yok,yok,yok,yok,yok,yok,yok,yok,yok,yok,yok,yok,yok,yok,var,yok,yok,yok,yok,kademe_5,bilinmiyor,bilinmiyor,bilinmiyor,200_300_m2,3_oda,bilinmiyor,1_banyo,yok,yok,yok,dusuk,yok,dusuk,yok,5_7_Bucuk_Milyon_TL_Arasi
Hatay,Arsuz,Satilik,0,Ara_Kat,Klima,bilinmiyor,yok,var,var,yok,yok,var,var,var,var,yok,var,yok,yok,var,yok,yok,yok,yok,yok,yok,yok,var,yok,yok,yok,yok,yok,yok,yok,yok,kademe_5,iyi,iyi,bilinmiyor,75_100_m2,3_oda,orta_4_7_kat,1_banyo,yok,dusuk,yok,orta,orta,yuksek,yok,4_5_Milyon_TL_Arasi
Bartin,Merkez,Satilik,0,Ara_Kat,Kombi_Dogalgaz,bilinmiyor,yok,var,yok,yok,yok,yok,yok,yok,yok,yok,yok,yok,yok,yok,yok,yok,yok,yok,yok,yok,yok,yok,yok,yok,yok,yok,yok,yok,yok,yok,kademe_5,bilinmiyor,bilinmiyor,bilinmiyor,75_100_m2,3_oda,orta_4_7_kat,1_banyo,yok,yok,yok,dusuk,yok,yok,yok,4_5_Milyon_TL_Arasi
Hatay,Arsuz,Satilik,6_10_arasi,3,Klima,bilinmiyor,yok,var,yok,yok,yok,yok,yok,yok,yok,yok,yok,yok,yok,yok,yok,yok,yok,yok,yok,yok,yok,yok,yok,yok,yok,yok,yok,yok,yok,yok,kademe_5,kotu,iyi,bilinmiyor,100_125_m2,4_oda,orta_4_7_kat,1_banyo,yok,yok,yok,dusuk,yok,dusuk,yok,3_4_Milyon_TL_Arasi
Hatay,Payas,Satilik,21_25_arasi,Bahce,Klima,bilinmiyor,yok,var,yok,yok,var,var,yok,var,var,yok,yok,yok,yok,yok,yok,yok,yok,yok,yok,yok,yok,yok,yok,yok,yok,yok,yok,var,yok,yok,kademe_5,normal,normal,normal,200_300_m2,4_oda,bilinmiyor,1_banyo,yok,yok,yok,dusuk,orta,orta,yok,5_7_Bucuk_Milyon_TL_Arasi
Hatay,Antakya,Satilik,0,Bahce,isitma_yok,bilinmiyor,yok,var,yok,yok,yok,var,var,var,var,yok,var,yok,yok,yok,yok,yok,yok,yok,yok,yok,yok,yok,var,yok,yok,var,yok,yok,yok,yok,kademe_5,bilinmiyor,kotu,bilinmiyor,300_m2_ve_ustu,3_oda,bilinmiyor,2_banyo,yok,yok,yok,orta,yok,yok,yok,5_7_Bucuk_Milyon_TL_Arasi
Tokat,Merkez,Satilik,6_10_arasi,5,Kombi_Dogalgaz,bilinmiyor,yok,var,yok,yok,yok,yok,yok,yok,yok,yok,yok,yok,yok,yok,yok,yok,yok,yok,yok,yok,yok,yok,yok,yok,yok,yok,yok,yok,yok,yok,kademe_5,normal,normal,normal,125_150_m2,4_oda,yuksek_8_15_kat,1_banyo,yok,yok,yok,dusuk,yok,yok,yok,7_Bucuk_10_Milyon_TL_Arasi
Hatay,Iskenderun,Satilik,16_20_arasi,bilinmiyor,Kombi_Dogalgaz,Misafir_WC,yok,var,yok,var,yok,yok,yok,yok,yok,yok,yok,yok,yok,yok,yok,yok,yok,yok,yok,yok,yok,yok,yok,yok,yok,yok,yok,yok,yok,yok,kademe_5,iyi,normal,bilinmiyor,300_m2_ve_ustu,7_oda_ve_ustu,orta_4_7_kat,3_banyo_ve_ustu,yok,yok,yok,yok,yok,yok,yok,10_Milyon_TL_Ustu
Hatay,Iskenderun,Satilik,0,Zemin,Kombi_Dogalgaz,bilinmiyor,yok,var,var,yok,yok,yok,yok,var,yok,yok,var,yok,yok,yok,yok,yok,yok,yok,yok,yok,yok,yok,yok,yok,yok,yok,yok,yok,yok,yok,kademe_5,normal,bilinmiyor,kotu,100_125_m2,3_oda,orta_4_7_kat,1_banyo,dusuk,yok,yok,dusuk,dusuk,yuksek,yok,3_4_Milyon_TL_Arasi
Hatay,Iskenderun,Satilik,11_15_arasi,3,Klima,bilinmiyor,yok,var,yok,yok,yok,yok,yok,yok,yok,yok,yok,yok,yok,yok,yok,yok,yok,yok,yok,yok,yok,yok,yok,yok,yok,yok,yok,yok,yok,yok,kademe_5,normal,normal,bilinmiyor,150_200_m2,4_oda,orta_4_7_kat,2_banyo,yok,yok,yok,dusuk,yok,dusuk,yok,3_4_Milyon_TL_Arasi
Hatay,Dortyol,Satilik,1_5_arasi,Yuksek_Giris,Kombi,bilinmiyor,yok,var,var,var,yok,yok,yok,yok,yok,yok,var,var,yok,yok,yok,yok,yok,yok,yok,yok,yok,yok,yok,yok,yok,var,yok,yok,yok,yok,kademe_5,bilinmiyor,normal,bilinmiyor,200_300_m2,5_oda,orta_4_7_kat,3_banyo_ve_ustu,dusuk,dusuk,dusuk,orta,orta,orta,yok,5_7_Bucuk_Milyon_TL_Arasi
Bartin,Merkez,Satilik,1_5_arasi,Zemin,Kombi_Dogalgaz,bilinmiyor,yok,var,var,var,yok,yok,yok,yok,yok,yok,yok,yok,yok,yok,yok,yok,yok,yok,yok,yok,yok,yok,yok,yok,yok,yok,yok,yok,yok,yok,kademe_5,iyi,iyi,iyi,50_75_m2,2_oda,orta_4_7_kat,1_banyo,yok,yok,yok,yok,yok,yok,yok,2_3_Milyon_TL_Arasi
Yozgat,Merkez,Satilik,21_25_arasi,3,Kombi_Dogalgaz,bilinmiyor,yok,var,var,var,yok,yok,yok,yok,yok,yok,var,yok,yok,yok,yok,yok,yok,yok,yok,yok,yok,yok,yok,yok,yok,var,yok,yok,yok,yok,kademe_5,normal,normal,bilinmiyor,125_150_m2,4_oda,orta_4_7_kat,1_banyo,yok,yok,yok,dusuk,yok,yuksek,yok,1_5_2_Milyon_TL_Arasi
Tokat,Merkez,Satilik,16_20_arasi,4,Kombi,bilinmiyor,yok,var,var,var,yok,var,yok,var,var,yok,var,yok,yok,yok,yok,yok,yok,yok,yok,yok,yok,yok,yok,yok,yok,var,yok,yok,yok,yok,kademe_5,normal,kotu,bilinmiyor,125_150_m2,4_oda,orta_4_7_kat,1_banyo,yok,yok,yok,dusuk,orta,orta,yok,4_5_Milyon_TL_Arasi
Hatay,Arsuz,Satilik,31_ve_uzeri,bilinmiyor,Klima,bilinmiyor,yok,var,yok,yok,yok,yok,var,yok,yok,yok,var,yok,yok,yok,yok,yok,yok,yok,yok,yok,yok,yok,yok,yok,yok,yok,yok,yok,yok,yok,kademe_5,bilinmiyor,bilinmiyor,bilinmiyor,125_150_m2,5_oda,alcak_1_3_kat,2_banyo,yok,yok,yok,dusuk,orta,orta,yok,5_7_Bucuk_Milyon_TL_Arasi
Hatay,Defne,Satilik,11_15_arasi,5,Kombi,bilinmiyor,yok,var,var,var,yok,var,var,var,yok,yok,var,yok,yok,var,yok,yok,yok,yok,yok,yok,yok,yok,yok,yok,yok,var,yok,yok,yok,yok,kademe_5,iyi,kotu,bilinmiyor,150_200_m2,5_oda,orta_4_7_kat,1_banyo,yok,dusuk,dusuk,orta,yuksek,yuksek,yok,4_5_Milyon_TL_Arasi
Hatay,Defne,Satilik,6_10_arasi,2,Kombi_Dogalgaz,bilinmiyor,yok,yok,var,yok,yok,var,var,yok,var,yok,yok,yok,yok,yok,yok,yok,yok,yok,yok,yok,yok,yok,yok,yok,yok,yok,yok,yok,yok,yok,kademe_5,normal,bilinmiyor,bilinmiyor,150_200_m2,4_oda,orta_4_7_kat,1_banyo,yok,yok,yok,dusuk,dusuk,yok,yok,2_3_Milyon_TL_Arasi
Hatay,Antakya,Satilik,6_10_arasi,1,Kombi,bilinmiyor,yok,var,var,var,yok,yok,yok,yok,yok,yok,yok,yok,yok,yok,yok,yok,yok,yok,yok,yok,yok,yok,yok,yok,yok,yok,yok,yok,yok,yok,kademe_5,kotu,kotu,kotu,125_150_m2,3_oda,orta_4_7_kat,1_banyo,yok,yok,dusuk,orta,yuksek,yok,yok,2_3_Milyon_TL_Arasi
Tokat,Merkez,Satilik,11_15_arasi,9,Kombi,bilinmiyor,yok,var,var,var,yok,yok,yok,yok,yok,yok,yok,yok,yok,yok,yok,yok,yok,yok,yok,yok,yok,yok,yok,yok,yok,yok,yok,yok,yok,yok,kademe_5,iyi,kotu,bilinmiyor,125_150_m2,4_oda,yuksek_8_15_kat,1_banyo,yok,yok,yok,dusuk,yok,yok,yok,3_4_Milyon_TL_Arasi
Tokat,Niksar,Satilik,26_30_arasi,bilinmiyor,Soba,bilinmiyor,yok,yok,yok,yok,yok,var,var,var,var,yok,yok,yok,yok,var,yok,yok,yok,yok,yok,yok,yok,yok,yok,yok,yok,var,yok,var,yok,yok,kademe_5,kotu,kotu,kotu,300_m2_ve_ustu,7_oda_ve_ustu,alcak_1_3_kat,2_banyo,yok,yok,yok,dusuk,dusuk,dusuk,yok,4_5_Milyon_TL_Arasi
Hatay,Dortyol,Satilik,1_5_arasi,4,Kombi_Dogalgaz,bilinmiyor,yok,var,var,var,yok,yok,var,var,var,yok,yok,var,yok,yok,yok,yok,yok,yok,yok,yok,yok,var,var,yok,yok,var,yok,yok,yok,yok,kademe_5,iyi,iyi,normal,125_150_m2,4_oda,orta_4_7_kat,2_banyo,dusuk,yok,yok,orta,orta,yuksek,yok,3_4_Milyon_TL_Arasi
Tokat,Merkez,Satilik,31_ve_uzeri,bilinmiyor,Soba,bilinmiyor,yok,yok,yok,yok,yok,yok,yok,var,yok,yok,yok,yok,yok,yok,var,yok,yok,yok,yok,yok,yok,yok,yok,yok,yok,yok,yok,yok,yok,yok,kademe_5,kotu,kotu,kotu,200_300_m2,5_oda,alcak_1_3_kat,1_banyo,yok,yok,yok,dusuk,yok,dusuk,yok,3_4_Milyon_TL_Arasi
Tokat,Merkez,Satilik,0,5,Kombi,bilinmiyor,yok,var,var,var,yok,var,var,var,yok,yok,yok,yok,yok,yok,yok,yok,yok,yok,yok,yok,yok,yok,yok,yok,yok,yok,yok,yok,yok,yok,kademe_5,bilinmiyor,bilinmiyor,bilinmiyor,125_150_m2,4_oda,orta_4_7_kat,2_banyo,yok,yok,yok,yok,yok,yok,yok,5_7_Bucuk_Milyon_TL_Arasi
Hatay,Antakya,Satilik,11_15_arasi,Ara_Kat,Kombi_Dogalgaz,bilinmiyor,yok,var,var,var,yok,var,var,yok,var,yok,yok,yok,yok,yok,yok,yok,yok,yok,yok,yok,yok,yok,yok,yok,yok,yok,yok,yok,yok,yok,kademe_5,iyi,normal,kotu,125_150_m2,4_oda,orta_4_7_kat,1_banyo,yok,yok,yok,dusuk,yok,dusuk,yok,2_3_Milyon_TL_Arasi
Erzurum,Palandoken,Satilik,26_30_arasi,Zemin,Kombi_Dogalgaz,bilinmiyor,yok,yok,yok,yok,yok,yok,yok,yok,yok,yok,yok,yok,yok,yok,yok,yok,yok,yok,yok,yok,yok,yok,yok,yok,yok,yok,yok,yok,yok,yok,kademe_5,normal,normal,bilinmiyor,100_125_m2,4_oda,orta_4_7_kat,1_banyo,yok,yok,yok,dusuk,yok,yok,yok,1_5_Milyon_TL_Alti
Hatay,Defne,Satilik,0,2,Kombi,bilinmiyor,yok,var,var,var,yok,var,var,var,yok,yok,yok,yok,yok,yok,yok,yok,yok,yok,yok,yok,yok,yok,yok,yok,yok,var,yok,yok,yok,yok,kademe_5,normal,bilinmiyor,iyi,100_125_m2,3_oda,orta_4_7_kat,1_banyo,yok,yok,yok,dusuk,yok,yok,yok,3_4_Milyon_TL_Arasi
Kahramanmaras,Onikisubat,Satilik,6_10_arasi,3,Merkezi,bilinmiyor,yok,var,var,var,yok,var,yok,var,var,yok,var,yok,yok,var,yok,yok,yok,yok,yok,yok,yok,yok,yok,yok,yok,var,yok,yok,yok,yok,kademe_5,normal,normal,bilinmiyor,125_150_m2,4_oda,yuksek_8_15_kat,1_banyo,dusuk,dusuk,yok,dusuk,yok,yuksek,yok,3_4_Milyon_TL_Arasi
Hatay,Defne,Satilik,6_10_arasi,2,Kombi,bilinmiyor,yok,var,var,var,yok,var,var,yok,var,yok,var,yok,yok,yok,yok,yok,yok,yok,yok,yok,yok,yok,var,yok,yok,var,yok,yok,yok,yok,kademe_5,iyi,normal,bilinmiyor,125_150_m2,4_oda,orta_4_7_kat,2_banyo,yok,yok,yok,dusuk,dusuk,dusuk,yok,3_4_Milyon_TL_Arasi
Erzurum,Horasan,Satilik,0,5,Kombi_Dogalgaz,bilinmiyor,yok,var,var,var,yok,yok,var,var,yok,yok,var,yok,yok,yok,yok,yok,yok,yok,yok,yok,yok,yok,yok,yok,yok,var,yok,yok,yok,yok,kademe_5,iyi,normal,bilinmiyor,150_200_m2,4_oda,orta_4_7_kat,1_banyo,yok,yok,yok,dusuk,orta,orta,yok,2_3_Milyon_TL_Arasi
Hatay,Iskenderun,Satilik,16_20_arasi,En_Ust_Kat,Kombi_Dogalgaz,bilinmiyor,yok,var,var,yok,yok,yok,yok,yok,yok,yok,yok,yok,yok,yok,yok,yok,yok,yok,yok,yok,yok,yok,yok,yok,yok,yok,yok,yok,yok,yok,kademe_5,kotu,normal,kotu,150_200_m2,4_oda,orta_4_7_kat,1_banyo,yok,yok,yok,dusuk,yok,yok,yok,3_4_Milyon_TL_Arasi
Tokat,Merkez,Satilik,16_20_arasi,5,Kombi,bilinmiyor,yok,var,var,var,yok,yok,var,var,yok,yok,yok,yok,yok,yok,yok,yok,yok,yok,yok,yok,yok,yok,yok,yok,yok,yok,yok,yok,yok,yok,kademe_5,iyi,bilinmiyor,bilinmiyor,125_150_m2,4_oda,yuksek_8_15_kat,1_banyo,yok,yok,yok,dusuk,yok,dusuk,yok,3_4_Milyon_TL_Arasi
Hatay,Payas,Satilik,6_10_arasi,3,Kombi,bilinmiyor,yok,var,var,var,yok,yok,var,yok,var,yok,yok,var,yok,yok,yok,yok,yok,yok,var,yok,yok,yok,var,yok,yok,var,yok,yok,yok,yok,kademe_5,iyi,iyi,bilinmiyor,150_200_m2,4_oda,yuksek_8_15_kat,2_banyo,dusuk,dusuk,yok,dusuk,orta,orta,yok,2_3_Milyon_TL_Arasi
Hatay,Defne,Satilik,1_5_arasi,Bahce,Kombi_Dogalgaz,bilinmiyor,yok,yok,var,var,yok,yok,yok,yok,yok,yok,yok,yok,yok,yok,yok,yok,yok,yok,yok,yok,yok,yok,yok,yok,yok,yok,yok,yok,yok,yok,kademe_5,iyi,iyi,bilinmiyor,125_150_m2,4_oda,orta_4_7_kat,1_banyo,yok,yok,yok,dusuk,yok,dusuk,yok,3_4_Milyon_TL_Arasi
Hatay,Antakya,Satilik,6_10_arasi,bilinmiyor,Soba,bilinmiyor,yok,var,yok,yok,yok,yok,yok,var,yok,yok,yok,yok,yok,yok,yok,yok,yok,yok,yok,yok,yok,yok,yok,yok,yok,yok,yok,yok,yok,yok,kademe_5,kotu,bilinmiyor,bilinmiyor,200_300_m2,4_oda,alcak_1_3_kat,1_banyo,yok,yok,yok,dusuk,yok,yok,yok,5_7_Bucuk_Milyon_TL_Arasi
Erzurum,Palandoken,Satilik,16_20_arasi,1,Kombi_Dogalgaz,bilinmiyor,yok,yok,yok,yok,yok,var,var,yok,yok,yok,yok,yok,yok,yok,yok,yok,yok,yok,yok,yok,yok,yok,yok,yok,yok,yok,yok,yok,yok,yok,kademe_5,normal,iyi,kotu,125_150_m2,4_oda,orta_4_7_kat,1_banyo,yok,yok,yok,dusuk,yok,yok,yok,2_3_Milyon_TL_Arasi
Tokat,Merkez,Satilik,11_15_arasi,Teras_Kati,Kombi_Dogalgaz,bilinmiyor,yok,var,var,yok,yok,yok,yok,yok,yok,yok,var,yok,yok,yok,yok,yok,yok,yok,yok,yok,yok,yok,yok,yok,yok,yok,yok,yok,var,yok,kademe_5,kotu,normal,bilinmiyor,200_300_m2,6_oda,orta_4_7_kat,2_banyo,yok,yok,yok,dusuk,yok,dusuk,yok,5_7_Bucuk_Milyon_TL_Arasi
Hatay,Dortyol,Satilik,1_5_arasi,3,Kombi,bilinmiyor,yok,var,var,var,yok,yok,yok,yok,yok,yok,var,yok,yok,yok,yok,yok,yok,yok,yok,yok,yok,yok,yok,yok,yok,yok,yok,yok,yok,yok,kademe_5,iyi,iyi,normal,200_300_m2,5_oda,orta_4_7_kat,2_banyo,yok,yok,yok,dusuk,yok,yok,yok,5_7_Bucuk_Milyon_TL_Arasi
Hatay,Iskenderun,Satilik,26_30_arasi,1,Klima,bilinmiyor,yok,var,var,yok,yok,yok,yok,var,yok,yok,yok,yok,yok,yok,yok,yok,yok,yok,yok,yok,yok,yok,yok,yok,yok,var,yok,yok,yok,yok,kademe_5,iyi,normal,bilinmiyor,150_200_m2,4_oda,orta_4_7_kat,1_banyo,yok,yok,yok,orta,orta,orta,yok,3_4_Milyon_TL_Arasi
Tokat,Merkez,Satilik,0,2,Kombi,bilinmiyor,yok,var,yok,var,yok,var,var,var,yok,yok,yok,yok,yok,yok,yok,yok,yok,yok,yok,yok,yok,yok,yok,yok,yok,yok,yok,yok,yok,yok,kademe_5,bilinmiyor,iyi,iyi,125_150_m2,4_oda,yuksek_8_15_kat,2_banyo,yok,yok,yok,dusuk,yok,yok,yok,7_Bucuk_10_Milyon_TL_Arasi
Tokat,Merkez,Satilik,6_10_arasi,6,Kombi,bilinmiyor,yok,var,var,var,yok,var,var,var,yok,yok,yok,yok,yok,yok,yok,yok,yok,yok,yok,yok,yok,yok,yok,yok,yok,var,yok,yok,yok,yok,kademe_5,normal,normal,kotu,125_150_m2,4_oda,orta_4_7_kat,2_banyo,yok,yok,dusuk,dusuk,orta,yok,yok,4_5_Milyon_TL_Arasi
Nigde,Bor,Satilik,16_20_arasi,bilinmiyor,Kombi_Dogalgaz,bilinmiyor,yok,var,yok,yok,yok,var,var,var,yok,yok,yok,yok,yok,yok,yok,yok,yok,yok,yok,yok,yok,yok,yok,yok,yok,yok,yok,yok,yok,yok,kademe_5,iyi,kotu,bilinmiyor,100_125_m2,3_oda,alcak_1_3_kat,1_banyo,yok,yok,yok,dusuk,yok,yok,yok,3_4_Milyon_TL_Arasi
Erzurum,Yakutiye,Satilik,0,3,Merkezi,bilinmiyor,yok,var,var,var,yok,yok,var,yok,var,yok,yok,var,yok,var,yok,yok,yok,yok,yok,yok,yok,yok,yok,yok,yok,yok,yok,yok,yok,yok,kademe_5,iyi,iyi,bilinmiyor,200_300_m2,5_oda,yuksek_8_15_kat,2_banyo,dusuk,dusuk,yok,dusuk,yok,dusuk,yok,7_Bucuk_10_Milyon_TL_Arasi
Hatay,Iskenderun,Satilik,0,2,Kombi,bilinmiyor,yok,var,var,var,yok,var,var,var,var,yok,var,yok,yok,yok,yok,yok,yok,yok,yok,yok,yok,yok,var,yok,yok,yok,yok,yok,yok,yok,kademe_5,iyi,iyi,iyi,100_125_m2,3_oda,orta_4_7_kat,1_banyo,dusuk,yok,yok,orta,yuksek,yuksek,yok,5_7_Bucuk_Milyon_TL_Arasi
Tokat,Merkez,Satilik,31_ve_uzeri,6,Kombi,bilinmiyor,yok,var,var,var,yok,var,var,yok,yok,yok,var,yok,yok,yok,yok,yok,yok,yok,yok,yok,yok,yok,yok,yok,yok,var,yok,yok,yok,yok,kademe_5,bilinmiyor,normal,bilinmiyor,100_125_m2,3_oda,orta_4_7_kat,1_banyo,yok,yok,yok,orta,orta,yok,yok,3_4_Milyon_TL_Arasi
Nigde,Merkez,Satilik,1_5_arasi,bilinmiyor,Kombi_Dogalgaz,bilinmiyor,yok,var,yok,var,var,var,var,var,var,yok,var,var,yok,var,yok,yok,yok,yok,yok,yok,yok,yok,yok,yok,yok,yok,yok,yok,yok,var,kademe_5,iyi,iyi,bilinmiyor,300_m2_ve_ustu,6_oda,orta_4_7_kat,3_banyo_ve_ustu,orta,dusuk,yok,dusuk,yok,yuksek,yok,10_Milyon_TL_Ustu
Tokat,Merkez,Satilik,6_10_arasi,4,Kombi,bilinmiyor,yok,var,var,var,yok,yok,var,var,yok,yok,var,var,yok,var,yok,yok,yok,yok,yok,yok,yok,yok,yok,yok,yok,var,yok,yok,yok,yok,kademe_5,iyi,normal,bilinmiyor,125_150_m2,4_oda,yuksek_8_15_kat,2_banyo,yok,yok,dusuk,dusuk,dusuk,yuksek,yok,5_7_Bucuk_Milyon_TL_Arasi
Hatay,Antakya,Satilik,0,1,Merkezi,bilinmiyor,yok,var,var,var,yok,yok,var,var,yok,yok,var,yok,yok,yok,yok,yok,yok,yok,yok,yok,yok,yok,var,yok,yok,yok,yok,yok,yok,yok,kademe_5,iyi,iyi,kotu,100_125_m2,4_oda,orta_4_7_kat,1_banyo,dusuk,dusuk,yok,orta,dusuk,yuksek,yok,1_5_2_Milyon_TL_Arasi
Osmaniye,Merkez,Satilik,0,bilinmiyor,Klima,bilinmiyor,yok,var,yok,yok,yok,yok,yok,yok,yok,yok,var,var,yok,yok,yok,yok,yok,yok,yok,yok,yok,yok,yok,yok,yok,yok,yok,yok,yok,yok,kademe_5,normal,normal,bilinmiyor,150_200_m2,5_oda,alcak_1_3_kat,2_banyo,yok,yok,yok,dusuk,yok,dusuk,yok,5_7_Bucuk_Milyon_TL_Arasi
Bartin,Merkez,Satilik,6_10_arasi,bilinmiyor,Kombi_Dogalgaz,bilinmiyor,yok,yok,yok,yok,yok,yok,yok,yok,yok,yok,yok,yok,yok,yok,yok,yok,yok,yok,yok,yok,yok,yok,yok,yok,yok,yok,yok,yok,yok,yok,kademe_5,bilinmiyor,bilinmiyor,bilinmiyor,200_300_m2,7_oda_ve_ustu,alcak_1_3_kat,2_banyo,yok,yok,yok,dusuk,yok,yok,yok,10_Milyon_TL_Ustu
Erzurum,Palandoken,Satilik,0,7,Yerden_Isitma,bilinmiyor,yok,var,var,var,yok,var,yok,yok,var,yok,var,var,yok,yok,yok,yok,yok,yok,yok,yok,yok,yok,yok,yok,yok,var,yok,yok,yok,yok,kademe_5,iyi,iyi,bilinmiyor,150_200_m2,5_oda,yuksek_8_15_kat,2_banyo,dusuk,dusuk,yok,dusuk,orta,yuksek,yok,5_7_Bucuk_Milyon_TL_Arasi
Hatay,Arsuz,Satilik,0,Ara_Kat,Klima,bilinmiyor,yok,var,var,yok,yok,var,var,var,var,yok,var,yok,yok,var,yok,yok,yok,yok,yok,yok,yok,yok,var,yok,yok,yok,yok,yok,yok,yok,kademe_5,normal,normal,bilinmiyor,50_75_m2,2_oda,orta_4_7_kat,1_banyo,yok,dusuk,yok,dusuk,dusuk,yuksek,yok,2_3_Milyon_TL_Arasi
Hatay,Arsuz,Satilik,0,3,isitma_yok,bilinmiyor,yok,var,var,var,yok,var,var,var,var,yok,var,var,yok,yok,yok,yok,yok,yok,yok,yok,var,yok,var,yok,yok,var,var,yok,yok,yok,kademe_5,bilinmiyor,bilinmiyor,bilinmiyor,150_200_m2,4_oda,orta_4_7_kat,3_banyo_ve_ustu,yok,dusuk,dusuk,orta,yuksek,yuksek,yok,5_7_Bucuk_Milyon_TL_Arasi
Tokat,Niksar,Satilik,21_25_arasi,Yuksek_Giris,Kombi_Dogalgaz,bilinmiyor,yok,yok,yok,yok,yok,yok,yok,var,yok,yok,yok,yok,yok,yok,yok,yok,yok,yok,yok,yok,yok,yok,yok,yok,yok,yok,yok,yok,yok,yok,kademe_5,iyi,normal,normal,100_125_m2,3_oda,orta_4_7_kat,1_banyo,yok,yok,yok,yok,yok,dusuk,yok,1_5_Milyon_TL_Alti
Hatay,Iskenderun,Satilik,21_25_arasi,Ara_Kat,Kombi_Dogalgaz,bilinmiyor,yok,yok,yok,yok,yok,var,var,var,var,yok,yok,yok,yok,yok,yok,yok,yok,yok,yok,yok,yok,yok,yok,yok,yok,yok,yok,yok,yok,yok,kademe_5,normal,iyi,iyi,150_200_m2,4_oda,orta_4_7_kat,2_banyo,yok,yok,yok,dusuk,yok,yok,yok,5_7_Bucuk_Milyon_TL_Arasi
Tokat,Zile,Satilik,21_25_arasi,Bahce,Kombi,bilinmiyor,yok,var,yok,yok,yok,yok,yok,yok,yok,yok,yok,yok,yok,yok,yok,yok,yok,yok,yok,yok,yok,yok,yok,yok,yok,yok,yok,yok,yok,yok,kademe_5,bilinmiyor,bilinmiyor,bilinmiyor,200_300_m2,6_oda,bilinmiyor,1_banyo,yok,yok,yok,dusuk,yok,yok,yok,5_7_Bucuk_Milyon_TL_Arasi
Hatay,Defne,Satilik,6_10_arasi,2,Kombi,bilinmiyor,yok,var,yok,var,yok,yok,yok,yok,yok,yok,yok,yok,yok,yok,yok,yok,yok,yok,yok,yok,yok,yok,yok,yok,yok,yok,yok,yok,yok,yok,kademe_5,iyi,normal,iyi,125_150_m2,4_oda,orta_4_7_kat,1_banyo,yok,yok,yok,dusuk,yok,yok,yok,2_3_Milyon_TL_Arasi
Bartin,Amasra,Satilik,11_15_arasi,Giris,Kombi,bilinmiyor,yok,var,var,yok,yok,var,yok,var,var,yok,var,var,yok,var,yok,yok,yok,yok,yok,yok,yok,yok,var,yok,yok,var,yok,yok,yok,yok,kademe_5,kotu,iyi,kotu,100_125_m2,3_oda,orta_4_7_kat,2_banyo,yok,dusuk,yok,dusuk,orta,yuksek,yok,3_4_Milyon_TL_Arasi
Yozgat,Merkez,Satilik,21_25_arasi,4,Kombi_Dogalgaz,bilinmiyor,yok,var,var,var,yok,yok,yok,yok,yok,yok,var,yok,yok,yok,yok,yok,yok,yok,yok,yok,yok,yok,yok,yok,yok,var,yok,yok,yok,yok,kademe_5,normal,kotu,bilinmiyor,125_150_m2,4_oda,orta_4_7_kat,1_banyo,yok,yok,yok,orta,dusuk,orta,yok,2_3_Milyon_TL_Arasi
Hatay,Antakya,Satilik,16_20_arasi,Ara_Kat,Kombi_Dogalgaz,bilinmiyor,yok,var,var,var,yok,yok,yok,var,var,yok,var,var,yok,var,yok,yok,yok,yok,yok,yok,yok,yok,var,yok,yok,var,yok,yok,yok,yok,kademe_5,iyi,bilinmiyor,bilinmiyor,125_150_m2,4_oda,orta_4_7_kat,1_banyo,dusuk,dusuk,yok,orta,orta,yuksek,yok,2_3_Milyon_TL_Arasi
Hatay,Belen,Satilik,11_15_arasi,bilinmiyor,Kombi_Dogalgaz,bilinmiyor,yok,yok,yok,var,yok,var,var,var,var,yok,var,var,yok,var,var,yok,yok,yok,yok,yok,yok,yok,var,yok,yok,yok,yok,yok,yok,var,kademe_5,iyi,normal,bilinmiyor,300_m2_ve_ustu,7_oda_ve_ustu,orta_4_7_kat,2_banyo,yok,orta,dusuk,orta,yok,yuksek,yok,10_Milyon_TL_Ustu
Hatay,Defne,Satilik,1_5_arasi,Ara_Kat,Kombi_Dogalgaz,bilinmiyor,yok,yok,yok,yok,yok,yok,yok,yok,yok,yok,yok,yok,yok,yok,yok,yok,yok,yok,yok,yok,yok,yok,yok,yok,yok,yok,yok,yok,yok,yok,kademe_5,bilinmiyor,bilinmiyor,kotu,125_150_m2,4_oda,orta_4_7_kat,1_banyo,yok,yok,yok,dusuk,yok,yok,yok,3_4_Milyon_TL_Arasi
Bartin,Merkez,Satilik,16_20_arasi,3,Kombi_Dogalgaz,bilinmiyor,yok,var,var,var,yok,yok,yok,yok,yok,yok,yok,yok,yok,yok,yok,yok,yok,yok,yok,yok,yok,yok,yok,yok,yok,yok,yok,yok,yok,yok,kademe_5,iyi,kotu,kotu,125_150_m2,4_oda,orta_4_7_kat,1_banyo,yok,yok,yok,dusuk,yok,yok,yok,4_5_Milyon_TL_Arasi
Erzurum,Yakutiye,Satilik,1_5_arasi,2,Merkezi,bilinmiyor,yok,var,var,var,yok,var,yok,var,var,yok,var,var,yok,yok,yok,yok,yok,yok,yok,yok,yok,yok,yok,yok,yok,var,yok,yok,yok,yok,kademe_5,iyi,normal,normal,150_200_m2,5_oda,orta_4_7_kat,2_banyo,yok,dusuk,yok,dusuk,orta,yuksek,yok,4_5_Milyon_TL_Arasi
Kahramanmaras,Onikisubat,Satilik,1_5_arasi,3,Merkezi,bilinmiyor,yok,yok,yok,yok,yok,var,var,var,var,yok,yok,yok,yok,yok,yok,yok,yok,yok,yok,yok,yok,yok,yok,yok,yok,var,yok,yok,yok,yok,kademe_5,kotu,normal,bilinmiyor,150_200_m2,4_oda,yuksek_8_15_kat,2_banyo,yok,yok,yok,orta,dusuk,yok,yok,3_4_Milyon_TL_Arasi
Nigde,Merkez,Satilik,31_ve_uzeri,1,Kombi,bilinmiyor,yok,var,yok,var,yok,yok,var,var,yok,yok,yok,yok,yok,yok,yok,yok,yok,yok,yok,yok,yok,yok,yok,yok,yok,yok,yok,yok,yok,yok,kademe_5,kotu,normal,kotu,125_150_m2,4_oda,orta_4_7_kat,1_banyo,yok,yok,yok,dusuk,yok,yok,yok,2_3_Milyon_TL_Arasi
Hatay,Iskenderun,Satilik,11_15_arasi,4,Klima,bilinmiyor,yok,var,var,var,yok,yok,var,yok,var,yok,var,yok,yok,yok,yok,yok,yok,yok,yok,yok,yok,yok,yok,yok,yok,yok,yok,yok,yok,yok,kademe_5,iyi,bilinmiyor,bilinmiyor,150_200_m2,4_oda,yuksek_8_15_kat,2_banyo,yok,yok,yok,dusuk,dusuk,orta,yok,3_4_Milyon_TL_Arasi
Hatay,Dortyol,Satilik,6_10_arasi,4,Kombi,bilinmiyor,yok,var,var,var,var,var,yok,var,var,yok,var,yok,yok,yok,yok,yok,yok,yok,yok,yok,yok,yok,yok,yok,yok,yok,yok,yok,yok,yok,kademe_5,iyi,normal,normal,300_m2_ve_ustu,6_oda,orta_4_7_kat,2_banyo,yok,yok,yok,dusuk,yok,dusuk,yok,7_Bucuk_10_Milyon_TL_Arasi
Hatay,Dortyol,Satilik,6_10_arasi,4,Kombi,bilinmiyor,yok,var,yok,var,yok,var,var,var,yok,yok,var,var,yok,var,yok,yok,yok,yok,yok,yok,yok,yok,yok,yok,yok,yok,yok,yok,yok,yok,kademe_5,iyi,bilinmiyor,bilinmiyor,150_200_m2,4_oda,orta_4_7_kat,2_banyo,dusuk,dusuk,dusuk,dusuk,orta,yuksek,yok,4_5_Milyon_TL_Arasi
Nigde,Merkez,Satilik,0,1,Merkezi,bilinmiyor,yok,var,var,var,yok,var,var,yok,yok,yok,var,yok,yok,var,yok,yok,yok,yok,yok,yok,yok,yok,yok,yok,yok,var,yok,yok,yok,yok,kademe_5,bilinmiyor,iyi,bilinmiyor,100_125_m2,3_oda,yuksek_8_15_kat,1_banyo,dusuk,dusuk,yok,dusuk,dusuk,orta,yok,4_5_Milyon_TL_Arasi
Hatay,Dortyol,Satilik,0,5,Kombi,bilinmiyor,yok,var,var,var,yok,yok,var,var,var,yok,var,yok,yok,yok,yok,yok,yok,yok,yok,yok,yok,yok,yok,yok,yok,var,yok,yok,yok,yok,kademe_5,iyi,normal,bilinmiyor,100_125_m2,3_oda,orta_4_7_kat,1_banyo,yok,dusuk,dusuk,dusuk,orta,yuksek,yok,4_5_Milyon_TL_Arasi
Erzurum,Yakutiye,Satilik,0,1,Merkezi,bilinmiyor,yok,var,yok,var,yok,yok,var,var,yok,yok,yok,yok,yok,yok,yok,yok,yok,yok,yok,yok,yok,yok,yok,yok,yok,yok,yok,yok,yok,yok,kademe_5,iyi,normal,kotu,150_200_m2,4_oda,yuksek_8_15_kat,2_banyo,yok,yok,yok,dusuk,yok,yok,yok,3_4_Milyon_TL_Arasi
Hatay,Antakya,Satilik,11_15_arasi,Zemin,Merkezi,bilinmiyor,yok,var,yok,var,yok,var,var,yok,yok,yok,var,yok,yok,yok,yok,yok,yok,yok,yok,yok,yok,yok,var,yok,yok,var,yok,yok,yok,yok,kademe_5,normal,normal,kotu,50_75_m2,3_oda,orta_4_7_kat,1_banyo,yok,dusuk,dusuk,orta,yuksek,yuksek,yok,1_5_Milyon_TL_Alti
Tokat,Merkez,Satilik,1_5_arasi,Yuksek_Giris,Merkezi,bilinmiyor,yok,var,var,var,yok,var,yok,var,yok,yok,var,var,yok,yok,yok,yok,yok,yok,yok,yok,yok,yok,yok,yok,yok,var,yok,yok,yok,yok,kademe_5,normal,normal,bilinmiyor,125_150_m2,4_oda,yuksek_8_15_kat,1_banyo,dusuk,yok,yok,dusuk,dusuk,orta,yok,3_4_Milyon_TL_Arasi
Hatay,Iskenderun,Satilik,0,1,Kombi,bilinmiyor,yok,var,yok,var,yok,var,var,var,yok,yok,var,yok,yok,var,yok,yok,yok,yok,yok,yok,yok,yok,yok,yok,yok,var,yok,yok,yok,yok,kademe_5,kotu,bilinmiyor,kotu,150_200_m2,5_oda,orta_4_7_kat,1_banyo,yok,dusuk,yok,orta,orta,yuksek,yok,5_7_Bucuk_Milyon_TL_Arasi
Hatay,Payas,Satilik,6_10_arasi,3,Kombi,bilinmiyor,yok,var,var,var,yok,var,var,yok,yok,yok,var,yok,yok,var,yok,yok,yok,yok,yok,yok,yok,yok,var,yok,yok,yok,yok,yok,yok,yok,kademe_5,normal,bilinmiyor,iyi,100_125_m2,3_oda,orta_4_7_kat,1_banyo,yok,dusuk,yok,dusuk,orta,yuksek,yok,2_3_Milyon_TL_Arasi
Hatay,Iskenderun,Satilik,21_25_arasi,En_Ust_Kat,Klima,bilinmiyor,yok,var,var,yok,yok,var,var,var,var,yok,var,yok,yok,yok,yok,yok,yok,yok,yok,yok,yok,yok,yok,yok,yok,yok,yok,yok,yok,yok,kademe_5,normal,bilinmiyor,bilinmiyor,125_150_m2,6_oda,orta_4_7_kat,3_banyo_ve_ustu,yok,yok,yok,dusuk,yok,yuksek,yok,2_3_Milyon_TL_Arasi
Kahramanmaras,Dulkadiroglu,Satilik,6_10_arasi,Giris,Kombi_Dogalgaz,bilinmiyor,yok,var,var,var,yok,yok,var,yok,var,yok,var,yok,yok,var,yok,yok,yok,yok,yok,yok,yok,yok,yok,yok,yok,var,yok,yok,yok,yok,kademe_5,bilinmiyor,iyi,bilinmiyor,75_100_m2,2_oda,alcak_1_3_kat,1_banyo,yok,yok,yok,dusuk,orta,orta,yok,2_3_Milyon_TL_Arasi
Tokat,Turhal,Satilik,21_25_arasi,4,Kombi,bilinmiyor,yok,var,yok,yok,yok,yok,yok,yok,yok,yok,yok,yok,yok,yok,yok,yok,yok,yok,yok,yok,yok,yok,yok,yok,yok,yok,yok,yok,yok,yok,kademe_5,iyi,bilinmiyor,bilinmiyor,100_125_m2,3_oda,orta_4_7_kat,1_banyo,yok,yok,yok,yok,yok,yok,yok,1_5_2_Milyon_TL_Arasi
Kahramanmaras,Dulkadiroglu,Satilik,1_5_arasi,4,Kombi,bilinmiyor,yok,var,yok,var,yok,var,yok,yok,var,yok,yok,yok,yok,yok,yok,yok,yok,yok,yok,yok,yok,yok,var,yok,yok,var,yok,yok,yok,yok,kademe_5,normal,normal,bilinmiyor,75_100_m2,3_oda,orta_4_7_kat,1_banyo,yok,yok,yok,dusuk,orta,dusuk,yok,1_5_2_Milyon_TL_Arasi
Hatay,Belen,Satilik,11_15_arasi,bilinmiyor,Klima,bilinmiyor,yok,yok,yok,yok,yok,var,yok,yok,yok,yok,var,yok,yok,var,yok,yok,yok,yok,yok,yok,yok,var,var,yok,yok,yok,yok,yok,yok,yok,kademe_5,kotu,kotu,bilinmiyor,100_125_m2,3_oda,alcak_1_3_kat,1_banyo,yok,dusuk,dusuk,dusuk,yok,orta,yok,7_Bucuk_10_Milyon_TL_Arasi
Hatay,Antakya,Satilik,1_5_arasi,4,Klima,bilinmiyor,yok,var,var,var,yok,yok,yok,var,yok,yok,var,yok,yok,yok,yok,yok,yok,yok,yok,yok,yok,yok,var,yok,yok,var,var,yok,yok,yok,kademe_5,normal,normal,kotu,200_300_m2,5_oda,orta_4_7_kat,1_banyo,dusuk,yok,dusuk,orta,yuksek,yuksek,yok,3_4_Milyon_TL_Arasi
Hatay,Iskenderun,Satilik,6_10_arasi,En_Ust_Kat,Klima,bilinmiyor,yok,var,var,yok,yok,var,var,yok,yok,yok,var,yok,yok,yok,yok,yok,yok,yok,yok,yok,yok,var,yok,yok,yok,var,var,yok,yok,yok,kademe_5,normal,normal,bilinmiyor,150_200_m2,5_oda,orta_4_7_kat,2_banyo,dusuk,dusuk,yok,orta,dusuk,orta,yok,4_5_Milyon_TL_Arasi
Hatay,Iskenderun,Satilik,1_5_arasi,4,Kombi,bilinmiyor,yok,var,var,var,yok,var,yok,var,yok,yok,var,var,yok,yok,yok,yok,yok,yok,yok,yok,yok,yok,yok,yok,yok,var,yok,yok,yok,yok,kademe_5,bilinmiyor,normal,bilinmiyor,150_200_m2,4_oda,yuksek_8_15_kat,2_banyo,yok,yok,yok,dusuk,orta,dusuk,yok,3_4_Milyon_TL_Arasi
Hatay,Arsuz,Satilik,0,bilinmiyor,Klima,bilinmiyor,yok,yok,yok,var,yok,var,var,var,var,yok,var,var,yok,var,yok,yok,yok,yok,yok,yok,yok,var,var,yok,yok,yok,yok,yok,yok,var,kademe_5,iyi,iyi,iyi,300_m2_ve_ustu,5_oda,orta_4_7_kat,2_banyo,yok,dusuk,yok,orta,yok,yuksek,yok,10_Milyon_TL_Ustu
Hatay,Dortyol,Satilik,1_5_arasi,4,Kombi,bilinmiyor,yok,var,var,var,yok,var,yok,var,yok,yok,var,var,yok,yok,yok,yok,yok,yok,yok,yok,yok,yok,yok,yok,yok,yok,yok,yok,yok,yok,kademe_5,iyi,normal,kotu,150_200_m2,4_oda,orta_4_7_kat,2_banyo,yok,yok,yok,orta,orta,orta,yok,4_5_Milyon_TL_Arasi
Hatay,Iskenderun,Satilik,6_10_arasi,9,Kombi,bilinmiyor,yok,var,yok,yok,yok,yok,var,var,yok,yok,yok,var,yok,var,yok,yok,yok,yok,yok,yok,yok,yok,yok,yok,yok,yok,yok,yok,yok,yok,kademe_5,kotu,normal,normal,200_300_m2,5_oda,yuksek_8_15_kat,2_banyo,dusuk,yok,dusuk,dusuk,orta,orta,yok,10_Milyon_TL_Ustu
Erzurum,Horasan,Satilik,6_10_arasi,4,Kombi_Dogalgaz,bilinmiyor,yok,var,var,var,yok,var,yok,var,yok,yok,var,var,yok,var,yok,yok,yok,yok,yok,yok,yok,yok,yok,yok,yok,var,yok,yok,yok,yok,kademe_5,normal,bilinmiyor,bilinmiyor,150_200_m2,4_oda,orta_4_7_kat,2_banyo,dusuk,yok,yok,orta,orta,yuksek,yok,2_3_Milyon_TL_Arasi
Hatay,Iskenderun,Satilik,1_5_arasi,Yuksek_Giris,Kombi_Dogalgaz,bilinmiyor,yok,var,yok,yok,yok,yok,var,yok,yok,yok,yok,yok,yok,yok,yok,yok,yok,yok,yok,yok,yok,yok,yok,yok,yok,yok,yok,yok,yok,yok,kademe_5,normal,iyi,normal,0_50_m2,2_oda,orta_4_7_kat,1_banyo,yok,yok,yok,dusuk,yok,yok,yok,1_5_2_Milyon_TL_Arasi
Erzurum,Palandoken,Satilik,21_25_arasi,1,Merkezi,bilinmiyor,yok,var,yok,var,yok,var,yok,var,yok,yok,var,yok,yok,yok,yok,yok,yok,yok,yok,yok,yok,yok,yok,yok,yok,yok,yok,yok,yok,yok,kademe_5,normal,normal,normal,100_125_m2,4_oda,orta_4_7_kat,1_banyo,yok,yok,yok,orta,orta,orta,yok,2_3_Milyon_TL_Arasi
Tokat,Merkez,Satilik,1_5_arasi,14,Kombi_Dogalgaz,bilinmiyor,yok,var,yok,yok,yok,var,var,var,var,yok,yok,yok,yok,yok,yok,yok,yok,yok,yok,yok,yok,yok,yok,yok,yok,yok,yok,yok,yok,yok,kademe_5,normal,iyi,bilinmiyor,125_150_m2,4_oda,cok_yuksek_16_ustu_kat,1_banyo,yok,yok,yok,dusuk,yok,yok,yok,3_4_Milyon_TL_Arasi
Hatay,Arsuz,Satilik,6_10_arasi,2,Klima,bilinmiyor,yok,var,yok,var,yok,var,yok,var,yok,yok,var,yok,yok,yok,yok,yok,yok,yok,yok,yok,yok,var,var,yok,yok,var,var,yok,yok,yok,kademe_5,iyi,normal,bilinmiyor,125_150_m2,3_oda,alcak_1_3_kat,2_banyo,dusuk,dusuk,yok,dusuk,dusuk,yuksek,yok,4_5_Milyon_TL_Arasi
Kahramanmaras,Dulkadiroglu,Satilik,1_5_arasi,Giris,Kombi_Dogalgaz,bilinmiyor,yok,yok,yok,yok,yok,yok,yok,yok,yok,yok,yok,yok,yok,yok,yok,yok,yok,yok,yok,yok,yok,yok,yok,yok,yok,yok,yok,yok,yok,yok,kademe_5,kotu,bilinmiyor,kotu,125_150_m2,4_oda,orta_4_7_kat,1_banyo,yok,yok,yok,dusuk,yok,yok,yok,2_3_Milyon_TL_Arasi
Hatay,Antakya,Satilik,6_10_arasi,4,Kombi,bilinmiyor,yok,var,yok,var,yok,var,var,var,yok,yok,var,var,yok,yok,yok,yok,yok,yok,yok,yok,yok,yok,var,yok,yok,var,yok,yok,yok,yok,kademe_5,iyi,normal,kotu,150_200_m2,4_oda,yuksek_8_15_kat,2_banyo,dusuk,yok,dusuk,orta,yuksek,yuksek,yok,4_5_Milyon_TL_Arasi
Hatay,Dortyol,Satilik,11_15_arasi,2,Kombi,bilinmiyor,yok,var,var,var,yok,yok,yok,yok,yok,yok,yok,yok,yok,yok,yok,yok,yok,yok,yok,yok,yok,yok,yok,yok,yok,yok,yok,yok,yok,yok,kademe_5,normal,normal,bilinmiyor,125_150_m2,4_oda,orta_4_7_kat,2_banyo,yok,yok,yok,dusuk,yok,dusuk,yok,3_4_Milyon_TL_Arasi
Hatay,Belen,Satilik,1_5_arasi,Bahce,Klima,bilinmiyor,yok,yok,yok,yok,yok,var,var,var,var,yok,yok,yok,yok,yok,yok,yok,yok,yok,yok,yok,yok,yok,yok,yok,yok,yok,yok,yok,yok,yok,kademe_5,bilinmiyor,bilinmiyor,bilinmiyor,125_150_m2,6_oda,alcak_1_3_kat,2_banyo,yok,yok,yok,dusuk,yok,dusuk,yok,10_Milyon_TL_Ustu
Hatay,Iskenderun,Satilik,0,Ara_Kat,Klima,bilinmiyor,yok,var,var,yok,yok,var,var,yok,yok,yok,var,yok,yok,var,yok,yok,yok,yok,yok,yok,yok,yok,yok,yok,yok,var,yok,yok,yok,yok,kademe_5,bilinmiyor,iyi,bilinmiyor,0_50_m2,2_oda,orta_4_7_kat,1_banyo,yok,dusuk,yok,dusuk,yok,yuksek,yok,2_3_Milyon_TL_Arasi
Erzurum,Yakutiye,Satilik,0,3,Merkezi,bilinmiyor,yok,var,var,var,yok,var,yok,yok,var,yok,var,var,yok,var,yok,yok,yok,yok,yok,yok,yok,yok,yok,yok,yok,var,yok,yok,yok,yok,kademe_5,bilinmiyor,bilinmiyor,bilinmiyor,150_200_m2,5_oda,yuksek_8_15_kat,2_banyo,dusuk,dusuk,dusuk,dusuk,orta,yuksek,yok,4_5_Milyon_TL_Arasi
Hatay,Arsuz,Satilik,16_20_arasi,bilinmiyor,Gunes_Enerjisi,bilinmiyor,yok,var,yok,var,yok,var,var,var,var,yok,var,yok,yok,yok,var,yok,yok,yok,var,yok,yok,yok,var,yok,yok,yok,yok,var,yok,yok,kademe_5,bilinmiyor,bilinmiyor,bilinmiyor,100_125_m2,4_oda,alcak_1_3_kat,1_banyo,yok,dusuk,dusuk,dusuk,yok,orta,yok,10_Milyon_TL_Ustu
Tokat,Merkez,Satilik,0,3,Kombi,bilinmiyor,yok,var,var,var,yok,yok,yok,yok,yok,yok,yok,yok,yok,yok,yok,yok,yok,yok,yok,yok,yok,yok,yok,yok,yok,var,yok,yok,yok,yok,kademe_5,bilinmiyor,iyi,bilinmiyor,125_150_m2,4_oda,yuksek_8_15_kat,2_banyo,yok,yok,yok,dusuk,yok,yok,yok,5_7_Bucuk_Milyon_TL_Arasi
Hatay,Dortyol,Satilik,6_10_arasi,4,Kombi,bilinmiyor,yok,var,yok,var,yok,var,var,yok,var,yok,yok,yok,yok,yok,yok,yok,yok,yok,yok,yok,yok,yok,yok,yok,yok,yok,yok,yok,yok,yok,kademe_5,iyi,normal,normal,200_300_m2,5_oda,orta_4_7_kat,3_banyo_ve_ustu,yok,dusuk,yok,dusuk,yok,yok,yok,5_7_Bucuk_Milyon_TL_Arasi
Tokat,Zile,Satilik,11_15_arasi,8,Kombi,bilinmiyor,yok,var,var,var,yok,var,yok,var,yok,yok,var,yok,yok,var,yok,yok,yok,yok,yok,yok,yok,yok,yok,yok,yok,var,yok,yok,yok,yok,kademe_5,bilinmiyor,bilinmiyor,bilinmiyor,125_150_m2,4_oda,yuksek_8_15_kat,1_banyo,dusuk,yok,dusuk,orta,yuksek,yuksek,yok,4_5_Milyon_TL_Arasi
Hatay,Iskenderun,Satilik,26_30_arasi,Yuksek_Giris,Klima,bilinmiyor,yok,var,yok,yok,var,yok,yok,yok,yok,yok,yok,yok,yok,yok,yok,yok,yok,yok,yok,yok,yok,yok,yok,yok,yok,yok,yok,yok,yok,yok,kademe_5,normal,iyi,bilinmiyor,150_200_m2,4_oda,orta_4_7_kat,1_banyo,yok,yok,yok,dusuk,yok,dusuk,yok,2_3_Milyon_TL_Arasi
Hatay,Payas,Satilik,1_5_arasi,3,Kombi,bilinmiyor,yok,var,var,var,yok,var,var,yok,var,yok,var,yok,yok,var,yok,yok,yok,yok,yok,yok,yok,yok,var,yok,yok,yok,yok,yok,yok,yok,kademe_5,bilinmiyor,iyi,bilinmiyor,100_125_m2,3_oda,orta_4_7_kat,1_banyo,dusuk,dusuk,dusuk,dusuk,orta,yuksek,yok,2_3_Milyon_TL_Arasi
Erzurum,Palandoken,Satilik,21_25_arasi,Bodrum,Kombi_Dogalgaz,bilinmiyor,yok,yok,yok,yok,yok,yok,yok,yok,yok,yok,yok,yok,yok,yok,yok,yok,yok,yok,yok,yok,yok,yok,yok,yok,yok,yok,yok,yok,yok,yok,kademe_5,kotu,bilinmiyor,kotu,125_150_m2,4_oda,orta_4_7_kat,1_banyo,yok,yok,yok,dusuk,yok,yok,yok,1_5_Milyon_TL_Alti
Hatay,Iskenderun,Satilik,11_15_arasi,3,Kombi_Dogalgaz,bilinmiyor,yok,var,var,var,yok,yok,yok,yok,yok,yok,var,yok,yok,var,yok,yok,yok,yok,yok,yok,yok,yok,yok,yok,yok,var,yok,yok,yok,yok,kademe_5,bilinmiyor,bilinmiyor,bilinmiyor,100_125_m2,3_oda,orta_4_7_kat,1_banyo,yok,yok,yok,dusuk,yok,yuksek,yok,2_3_Milyon_TL_Arasi
Bartin,Merkez,Satilik,11_15_arasi,3,Kombi,bilinmiyor,yok,var,var,var,yok,var,var,var,yok,yok,var,yok,yok,var,yok,yok,yok,yok,yok,yok,yok,yok,yok,yok,yok,yok,yok,yok,yok,yok,kademe_5,iyi,normal,bilinmiyor,125_150_m2,4_oda,orta_4_7_kat,1_banyo,yok,yok,yok,dusuk,yok,yuksek,yok,5_7_Bucuk_Milyon_TL_Arasi
Hatay,Arsuz,Satilik,6_10_arasi,6,Merkezi,bilinmiyor,yok,var,var,var,yok,yok,yok,yok,yok,yok,var,var,yok,yok,yok,yok,yok,yok,var,yok,yok,yok,yok,yok,yok,var,yok,yok,yok,yok,kademe_5,iyi,iyi,kotu,150_200_m2,4_oda,yuksek_8_15_kat,2_banyo,dusuk,dusuk,dusuk,dusuk,orta,yuksek,yok,5_7_Bucuk_Milyon_TL_Arasi
Hatay,Belen,Satilik,16_20_arasi,Ara_Kat,Kombi_Dogalgaz,bilinmiyor,yok,var,var,var,yok,yok,yok,var,var,yok,yok,var,yok,yok,yok,yok,yok,yok,yok,yok,yok,var,var,yok,yok,var,yok,yok,yok,yok,kademe_5,bilinmiyor,bilinmiyor,bilinmiyor,150_200_m2,4_oda,yuksek_8_15_kat,2_banyo,dusuk,yok,yok,dusuk,dusuk,orta,yok,2_3_Milyon_TL_Arasi
Tokat,Merkez,Satilik,11_15_arasi,6,Kombi,bilinmiyor,yok,var,var,var,yok,yok,var,var,yok,yok,var,yok,yok,var,yok,yok,yok,yok,yok,yok,yok,yok,yok,yok,yok,var,yok,yok,yok,yok,kademe_5,iyi,normal,bilinmiyor,150_200_m2,4_oda,yuksek_8_15_kat,1_banyo,dusuk,yok,dusuk,dusuk,orta,orta,yok,5_7_Bucuk_Milyon_TL_Arasi
Hatay,Dortyol,Satilik,21_25_arasi,5,Klima,bilinmiyor,yok,var,yok,var,yok,var,var,var,var,yok,var,yok,yok,yok,yok,yok,yok,yok,yok,yok,yok,yok,yok,yok,yok,var,yok,yok,yok,yok,kademe_5,normal,kotu,bilinmiyor,300_m2_ve_ustu,7_oda_ve_ustu,orta_4_7_kat,2_banyo,yok,yok,dusuk,dusuk,orta,yuksek,yok,10_Milyon_TL_Ustu
Hatay,Iskenderun,Satilik,0,3,Kat_Kaloriferi,bilinmiyor,yok,var,var,yok,yok,yok,var,yok,yok,yok,yok,yok,yok,yok,yok,yok,yok,yok,yok,yok,yok,yok,yok,yok,yok,yok,yok,yok,yok,yok,kademe_5,bilinmiyor,bilinmiyor,iyi,0_50_m2,2_oda,orta_4_7_kat,1_banyo,yok,yok,yok,orta,orta,yok,yok,2_3_Milyon_TL_Arasi
Hatay,Defne,Satilik,6_10_arasi,4,Kombi,bilinmiyor,yok,var,var,var,yok,var,var,yok,yok,yok,yok,yok,yok,yok,yok,yok,yok,yok,yok,yok,yok,yok,var,yok,yok,var,yok,yok,var,yok,kademe_5,normal,bilinmiyor,kotu,200_300_m2,5_oda,orta_4_7_kat,1_banyo,yok,yok,yok,orta,orta,dusuk,yok,3_4_Milyon_TL_Arasi
Tokat,Niksar,Satilik,6_10_arasi,Ara_Kat,Kombi_Dogalgaz,bilinmiyor,yok,var,var,yok,yok,yok,yok,var,var,yok,yok,yok,yok,yok,yok,yok,yok,yok,yok,yok,yok,yok,yok,yok,yok,var,yok,yok,yok,yok,kademe_5,normal,normal,normal,100_125_m2,4_oda,orta_4_7_kat,1_banyo,yok,yok,yok,orta,dusuk,orta,yok,3_4_Milyon_TL_Arasi
Tokat,Merkez,Satilik,6_10_arasi,Zemin,Kombi_Dogalgaz,bilinmiyor,yok,var,yok,yok,yok,yok,yok,var,yok,yok,yok,yok,yok,yok,yok,yok,yok,yok,yok,yok,yok,yok,yok,yok,yok,yok,yok,yok,yok,yok,kademe_5,bilinmiyor,bilinmiyor,bilinmiyor,100_125_m2,3_oda,orta_4_7_kat,2_banyo,yok,yok,yok,dusuk,yok,yok,yok,3_4_Milyon_TL_Arasi
Hatay,Defne,Satilik,0,4,Kombi_Dogalgaz,bilinmiyor,yok,var,var,yok,yok,var,var,var,var,yok,yok,yok,yok,yok,yok,yok,yok,yok,yok,yok,yok,yok,yok,yok,yok,yok,yok,yok,yok,yok,kademe_5,iyi,bilinmiyor,bilinmiyor,125_150_m2,4_oda,orta_4_7_kat,1_banyo,yok,yok,yok,dusuk,yok,yok,yok,2_3_Milyon_TL_Arasi
Hatay,Defne,Satilik,6_10_arasi,Yuksek_Giris,Kombi,bilinmiyor,yok,var,var,var,yok,yok,var,yok,var,yok,var,yok,yok,var,yok,yok,yok,yok,yok,yok,yok,yok,var,yok,yok,yok,yok,yok,yok,yok,kademe_5,iyi,bilinmiyor,bilinmiyor,100_125_m2,3_oda,orta_4_7_kat,1_banyo,yok,dusuk,yok,dusuk,yok,yuksek,yok,2_3_Milyon_TL_Arasi
Yozgat,Merkez,Satilik,0,1,Kombi,bilinmiyor,yok,var,yok,var,yok,yok,var,var,yok,yok,var,yok,yok,yok,yok,yok,yok,yok,yok,yok,yok,yok,var,yok,yok,yok,yok,yok,yok,yok,kademe_5,iyi,normal,bilinmiyor,75_100_m2,3_oda,alcak_1_3_kat,1_banyo,yok,yok,yok,yok,yok,dusuk,yok,1_5_2_Milyon_TL_Arasi
Bartin,Merkez,Satilik,16_20_arasi,Giris,Kombi,bilinmiyor,yok,yok,yok,var,yok,var,yok,yok,yok,yok,yok,yok,yok,var,yok,yok,yok,yok,yok,yok,yok,yok,yok,yok,yok,var,yok,yok,yok,yok,kademe_5,iyi,iyi,bilinmiyor,50_75_m2,2_oda,orta_4_7_kat,1_banyo,yok,yok,dusuk,dusuk,yuksek,orta,yok,2_3_Milyon_TL_Arasi
Hatay,Belen,Satilik,6_10_arasi,En_Ust_Kat,Kombi_Dogalgaz,bilinmiyor,yok,var,yok,yok,yok,yok,yok,yok,yok,yok,yok,yok,yok,yok,yok,yok,yok,yok,yok,yok,yok,yok,yok,yok,yok,yok,yok,yok,var,yok,kademe_5,kotu,kotu,normal,125_150_m2,4_oda,orta_4_7_kat,3_banyo_ve_ustu,yok,yok,yok,dusuk,yok,yok,yok,2_3_Milyon_TL_Arasi
Nigde,Bor,Satilik,16_20_arasi,3,Kombi,bilinmiyor,yok,var,yok,var,var,var,yok,var,var,yok,var,yok,yok,yok,yok,yok,yok,yok,yok,yok,yok,yok,var,yok,yok,var,yok,yok,yok,yok,kademe_5,bilinmiyor,bilinmiyor,bilinmiyor,125_150_m2,4_oda,orta_4_7_kat,1_banyo,dusuk,yok,yok,orta,orta,yuksek,yok,3_4_Milyon_TL_Arasi
Erzurum,Yakutiye,Satilik,31_ve_uzeri,3,Kombi,bilinmiyor,yok,var,yok,var,yok,var,var,yok,yok,yok,var,yok,yok,var,yok,yok,yok,yok,yok,yok,yok,yok,yok,yok,yok,var,yok,yok,yok,yok,kademe_5,iyi,bilinmiyor,kotu,100_125_m2,3_oda,orta_4_7_kat,1_banyo,yok,yok,dusuk,orta,yuksek,orta,yok,1_5_2_Milyon_TL_Arasi
Osmaniye,Merkez,Satilik,6_10_arasi,4,Kombi_Dogalgaz,bilinmiyor,yok,yok,yok,yok,yok,var,var,var,var,yok,yok,yok,yok,yok,yok,yok,yok,yok,yok,yok,yok,yok,yok,yok,yok,yok,yok,yok,yok,yok,kademe_5,iyi,normal,normal,150_200_m2,5_oda,orta_4_7_kat,2_banyo,yok,yok,yok,dusuk,orta,yok,yok,3_4_Milyon_TL_Arasi
Hatay,Antakya,Satilik,6_10_arasi,En_Ust_Kat,Kat_Kaloriferi,bilinmiyor,yok,yok,var,yok,yok,yok,yok,var,yok,yok,yok,yok,yok,yok,yok,yok,yok,yok,yok,yok,yok,yok,yok,yok,yok,yok,yok,yok,var,yok,kademe_5,bilinmiyor,bilinmiyor,normal,100_125_m2,3_oda,orta_4_7_kat,1_banyo,yok,yok,yok,dusuk,yok,yok,yok,3_4_Milyon_TL_Arasi
Tokat,Merkez,Satilik,11_15_arasi,1,Kombi,bilinmiyor,yok,var,var,var,yok,yok,yok,yok,yok,yok,yok,yok,yok,yok,yok,yok,yok,yok,yok,yok,yok,yok,yok,yok,yok,yok,yok,yok,yok,yok,kademe_5,iyi,normal,bilinmiyor,200_300_m2,5_oda,yuksek_8_15_kat,2_banyo,yok,yok,yok,dusuk,yok,yok,yok,7_Bucuk_10_Milyon_TL_Arasi
Tokat,Merkez,Satilik,21_25_arasi,5,Kombi_Dogalgaz,bilinmiyor,yok,yok,yok,var,yok,var,var,var,yok,yok,var,yok,yok,yok,yok,yok,yok,yok,yok,yok,yok,yok,yok,yok,yok,var,yok,yok,yok,yok,kademe_5,kotu,kotu,bilinmiyor,125_150_m2,3_oda,orta_4_7_kat,1_banyo,yok,yok,yok,dusuk,yok,dusuk,yok,3_4_Milyon_TL_Arasi
Kahramanmaras,Elbistan,Satilik,11_15_arasi,6,Kombi_Dogalgaz,bilinmiyor,yok,var,var,var,yok,yok,var,var,yok,yok,yok,yok,yok,var,yok,yok,yok,yok,yok,yok,yok,yok,yok,var,yok,yok,yok,yok,yok,yok,kademe_5,normal,bilinmiyor,bilinmiyor,125_150_m2,4_oda,yuksek_8_15_kat,1_banyo,dusuk,yok,yok,dusuk,yok,yuksek,yok,1_5_2_Milyon_TL_Arasi
Tokat,Merkez,Satilik,11_15_arasi,5,Merkezi,bilinmiyor,yok,var,var,var,yok,yok,yok,yok,yok,yok,yok,yok,yok,yok,yok,yok,yok,yok,yok,yok,yok,yok,yok,yok,yok,yok,yok,yok,yok,yok,kademe_5,normal,bilinmiyor,bilinmiyor,125_150_m2,4_oda,yuksek_8_15_kat,1_banyo,yok,yok,yok,dusuk,yok,yok,yok,3_4_Milyon_TL_Arasi
Kahramanmaras,Onikisubat,Satilik,6_10_arasi,3,Merkezi,bilinmiyor,yok,yok,var,var,yok,yok,yok,var,yok,yok,var,yok,yok,yok,yok,yok,yok,yok,yok,yok,yok,yok,yok,yok,yok,var,yok,yok,yok,yok,kademe_5,normal,bilinmiyor,bilinmiyor,50_75_m2,2_oda,orta_4_7_kat,1_banyo,dusuk,yok,yok,dusuk,orta,yuksek,yok,2_3_Milyon_TL_Arasi
Yozgat,Merkez,Satilik,1_5_arasi,3,Kombi_Dogalgaz,bilinmiyor,yok,var,var,var,yok,yok,yok,yok,yok,yok,var,yok,yok,yok,yok,yok,yok,yok,yok,yok,yok,yok,yok,yok,yok,var,yok,yok,yok,yok,kademe_5,normal,normal,bilinmiyor,50_75_m2,2_oda,orta_4_7_kat,1_banyo,yok,yok,yok,dusuk,yok,orta,yok,1_5_2_Milyon_TL_Arasi
Nigde,Merkez,Satilik,0,Bahce,Kombi,bilinmiyor,yok,yok,yok,var,yok,var,var,var,var,yok,var,var,yok,var,yok,yok,yok,yok,yok,yok,yok,yok,yok,yok,yok,yok,var,yok,yok,yok,kademe_5,iyi,iyi,bilinmiyor,300_m2_ve_ustu,6_oda,alcak_1_3_kat,3_banyo_ve_ustu,yok,dusuk,yok,dusuk,dusuk,orta,yok,10_Milyon_TL_Ustu
Osmaniye,Merkez,Satilik,11_15_arasi,Kot_2,Kombi_Dogalgaz,bilinmiyor,yok,var,var,var,yok,var,var,var,yok,yok,var,var,yok,var,yok,yok,yok,yok,yok,yok,yok,yok,yok,yok,yok,yok,yok,yok,yok,yok,kademe_5,normal,bilinmiyor,bilinmiyor,200_300_m2,5_oda,orta_4_7_kat,2_banyo,dusuk,dusuk,yok,yok,yok,yuksek,yok,3_4_Milyon_TL_Arasi
Hatay,Defne,Satilik,1_5_arasi,En_Ust_Kat,isitma_yok_elektrik,bilinmiyor,yok,yok,yok,var,yok,var,yok,yok,var,yok,yok,yok,yok,yok,yok,yok,yok,yok,yok,yok,yok,yok,yok,yok,yok,yok,yok,yok,yok,yok,kademe_5,normal,normal,bilinmiyor,100_125_m2,3_oda,orta_4_7_kat,1_banyo,yok,yok,yok,dusuk,dusuk,yok,yok,2_3_Milyon_TL_Arasi
Nigde,Merkez,Satilik,0,1,Kombi_Dogalgaz,bilinmiyor,yok,yok,var,var,yok,var,var,yok,var,yok,yok,yok,yok,yok,yok,yok,yok,yok,yok,yok,yok,yok,yok,yok,yok,yok,yok,yok,yok,yok,kademe_5,iyi,iyi,bilinmiyor,150_200_m2,4_oda,yuksek_8_15_kat,2_banyo,yok,yok,yok,dusuk,yok,yok,yok,5_7_Bucuk_Milyon_TL_Arasi
Hatay,Arsuz,Satilik,21_25_arasi,Bahce,isitma_yok,bilinmiyor,yok,yok,yok,var,yok,yok,var,var,var,yok,yok,yok,yok,yok,yok,yok,yok,yok,yok,yok,yok,yok,var,yok,yok,yok,yok,var,yok,yok,kademe_5,normal,kotu,bilinmiyor,200_300_m2,5_oda,alcak_1_3_kat,2_banyo,yok,yok,dusuk,dusuk,dusuk,yuksek,yok,10_Milyon_TL_Ustu
Hatay,Iskenderun,Satilik,0,Ara_Kat,Kombi,bilinmiyor,yok,var,var,var,yok,var,yok,var,yok,yok,var,yok,yok,yok,yok,yok,yok,yok,yok,yok,yok,yok,yok,yok,yok,var,yok,yok,yok,yok,kademe_5,normal,normal,bilinmiyor,100_125_m2,3_oda,orta_4_7_kat,1_banyo,yok,yok,yok,orta,dusuk,yuksek,yok,3_4_Milyon_TL_Arasi
Yozgat,Candir,Satilik,26_30_arasi,bilinmiyor,Soba,bilinmiyor,yok,var,yok,yok,yok,var,var,var,var,yok,yok,yok,yok,yok,var,yok,yok,yok,yok,yok,yok,yok,var,yok,yok,yok,yok,yok,yok,yok,kademe_5,bilinmiyor,bilinmiyor,bilinmiyor,200_300_m2,4_oda,alcak_1_3_kat,1_banyo,yok,dusuk,yok,dusuk,yok,orta,yok,1_5_Milyon_TL_Alti
Hatay,Arsuz,Satilik,16_20_arasi,Bahce,Klima,bilinmiyor,yok,var,yok,var,yok,yok,yok,yok,yok,yok,yok,yok,yok,yok,yok,yok,yok,yok,yok,yok,yok,yok,yok,yok,yok,yok,var,yok,yok,yok,kademe_5,normal,normal,bilinmiyor,200_300_m2,5_oda,alcak_1_3_kat,2_banyo,yok,yok,yok,dusuk,dusuk,dusuk,yok,10_Milyon_TL_Ustu
Hatay,Antakya,Satilik,1_5_arasi,Yuksek_Giris,Kombi_Dogalgaz,bilinmiyor,yok,var,var,var,yok,var,var,var,yok,yok,var,yok,yok,var,yok,yok,yok,yok,yok,yok,yok,yok,var,yok,yok,var,yok,yok,yok,yok,kademe_5,normal,iyi,normal,125_150_m2,3_oda,yuksek_8_15_kat,1_banyo,dusuk,dusuk,yok,orta,orta,yuksek,yok,3_4_Milyon_TL_Arasi
Osmaniye,Toprakkale,Satilik,1_5_arasi,4,Kombi_Dogalgaz,bilinmiyor,yok,var,yok,yok,yok,var,var,var,yok,yok,yok,yok,yok,yok,yok,yok,yok,yok,yok,yok,yok,yok,yok,yok,yok,yok,yok,yok,yok,yok,kademe_5,bilinmiyor,normal,bilinmiyor,150_200_m2,5_oda,orta_4_7_kat,2_banyo,yok,yok,yok,dusuk,yok,yok,yok,3_4_Milyon_TL_Arasi
Hatay,Belen,Satilik,6_10_arasi,8,Kombi,bilinmiyor,yok,var,yok,var,yok,yok,yok,yok,yok,yok,yok,yok,yok,yok,yok,yok,yok,yok,yok,yok,yok,yok,yok,yok,yok,yok,var,yok,yok,yok,kademe_5,normal,iyi,normal,125_150_m2,4_oda,yuksek_8_15_kat,1_banyo,yok,yok,yok,dusuk,yok,yok,yok,4_5_Milyon_TL_Arasi
Hatay,Iskenderun,Satilik,1_5_arasi,Yuksek_Giris,Klima,bilinmiyor,yok,var,var,var,var,yok,var,var,yok,yok,var,yok,yok,yok,yok,yok,yok,yok,yok,yok,yok,yok,yok,yok,yok,yok,yok,yok,yok,yok,kademe_5,iyi,bilinmiyor,normal,0_50_m2,2_oda,orta_4_7_kat,1_banyo,yok,yok,dusuk,dusuk,dusuk,yuksek,yok,1_5_2_Milyon_TL_Arasi
Hatay,Payas,Satilik,11_15_arasi,bilinmiyor,Klima,bilinmiyor,yok,var,yok,var,yok,yok,var,yok,yok,yok,yok,yok,yok,var,var,yok,yok,yok,yok,yok,yok,var,yok,yok,yok,yok,var,yok,yok,yok,kademe_5,kotu,normal,kotu,150_200_m2,4_oda,alcak_1_3_kat,2_banyo,dusuk,dusuk,dusuk,dusuk,orta,yuksek,yok,10_Milyon_TL_Ustu
Hatay,Iskenderun,Satilik,1_5_arasi,1,Klima,bilinmiyor,yok,yok,var,yok,var,yok,var,yok,yok,yok,var,yok,yok,yok,yok,yok,yok,var,yok,yok,yok,yok,yok,yok,yok,var,yok,yok,yok,yok,kademe_5,normal,iyi,iyi,50_75_m2,3_oda,orta_4_7_kat,1_banyo,yok,yok,yok,orta,orta,yuksek,yok,2_3_Milyon_TL_Arasi
Hatay,Belen,Satilik,11_15_arasi,bilinmiyor,Kombi_Dogalgaz,bilinmiyor,yok,var,yok,var,yok,var,var,var,var,yok,var,var,yok,var,yok,yok,yok,yok,yok,yok,yok,var,var,yok,yok,var,yok,yok,yok,var,kademe_5,bilinmiyor,bilinmiyor,bilinmiyor,200_300_m2,7_oda_ve_ustu,orta_4_7_kat,3_banyo_ve_ustu,yok,dusuk,yok,orta,orta,yuksek,yok,10_Milyon_TL_Ustu
Tokat,Merkez,Satilik,0,Giris,Kombi_Dogalgaz,bilinmiyor,yok,var,var,var,yok,yok,yok,var,var,yok,var,yok,yok,var,yok,yok,yok,yok,yok,yok,yok,yok,yok,yok,yok,yok,yok,yok,yok,yok,kademe_5,bilinmiyor,bilinmiyor,bilinmiyor,0_50_m2,1_oda,orta_4_7_kat,1_banyo,yok,yok,yok,dusuk,yok,orta,yok,1_5_2_Milyon_TL_Arasi
Hatay,Iskenderun,Satilik,6_10_arasi,En_Ust_Kat,Klima,bilinmiyor,yok,yok,var,yok,var,yok,var,var,yok,yok,var,yok,yok,yok,yok,yok,yok,yok,yok,yok,yok,yok,var,yok,yok,var,yok,yok,yok,yok,kademe_5,normal,normal,bilinmiyor,0_50_m2,2_oda,orta_4_7_kat,1_banyo,dusuk,yok,dusuk,orta,orta,orta,yok,1_5_2_Milyon_TL_Arasi
Nigde,Merkez,Satilik,11_15_arasi,3,Merkezi,bilinmiyor,yok,var,var,var,yok,var,var,yok,yok,yok,var,var,yok,yok,yok,yok,yok,yok,yok,yok,yok,yok,yok,yok,yok,var,yok,yok,yok,yok,kademe_5,normal,kotu,bilinmiyor,200_300_m2,5_oda,yuksek_8_15_kat,2_banyo,yok,dusuk,yok,dusuk,orta,orta,yok,5_7_Bucuk_Milyon_TL_Arasi
Hatay,Defne,Satilik,1_5_arasi,4,Kombi_Dogalgaz,bilinmiyor,yok,yok,var,yok,yok,yok,var,var,yok,yok,yok,yok,yok,var,yok,yok,yok,yok,yok,yok,yok,yok,var,yok,yok,yok,yok,yok,yok,yok,kademe_5,normal,normal,kotu,75_100_m2,3_oda,orta_4_7_kat,bilinmiyor,yok,yok,yok,dusuk,dusuk,orta,yok,1_5_2_Milyon_TL_Arasi
Yozgat,Merkez,Satilik,21_25_arasi,1,Kombi_Dogalgaz,bilinmiyor,yok,var,yok,var,yok,yok,yok,yok,yok,yok,yok,yok,yok,yok,yok,yok,yok,yok,yok,yok,yok,yok,yok,yok,yok,yok,yok,yok,yok,yok,kademe_5,iyi,bilinmiyor,kotu,125_150_m2,7_oda_ve_ustu,orta_4_7_kat,3_banyo_ve_ustu,yok,yok,yok,yok,yok,orta,yok,1_5_2_Milyon_TL_Arasi
Hatay,Arsuz,Satilik,1_5_arasi,Giris,Klima,bilinmiyor,yok,var,yok,var,yok,var,yok,yok,var,yok,var,yok,yok,yok,yok,yok,yok,yok,yok,yok,yok,var,yok,yok,yok,yok,yok,yok,yok,yok,kademe_5,bilinmiyor,bilinmiyor,bilinmiyor,75_100_m2,3_oda,alcak_1_3_kat,1_banyo,yok,dusuk,yok,dusuk,orta,orta,yok,3_4_Milyon_TL_Arasi
Hatay,Iskenderun,Satilik,6_10_arasi,Cati,Klima,bilinmiyor,yok,var,var,var,yok,var,var,yok,yok,yok,var,var,yok,var,var,yok,yok,yok,yok,yok,yok,yok,yok,yok,yok,var,yok,yok,var,yok,kademe_5,normal,bilinmiyor,normal,200_300_m2,6_oda,orta_4_7_kat,2_banyo,dusuk,dusuk,yok,orta,yok,yuksek,yok,4_5_Milyon_TL_Arasi
Nigde,Merkez,Satilik,0,5,Merkezi,bilinmiyor,yok,var,var,var,yok,var,var,yok,yok,yok,yok,yok,yok,yok,yok,yok,yok,yok,yok,yok,yok,yok,yok,yok,yok,yok,yok,yok,yok,yok,kademe_5,bilinmiyor,bilinmiyor,bilinmiyor,75_100_m2,3_oda,orta_4_7_kat,1_banyo,yok,yok,yok,dusuk,yok,yok,yok,2_3_Milyon_TL_Arasi
Nigde,Merkez,Satilik,21_25_arasi,3,Kombi,bilinmiyor,yok,var,var,var,yok,var,var,var,yok,yok,yok,yok,yok,yok,yok,yok,yok,yok,yok,yok,yok,yok,yok,yok,yok,yok,yok,yok,yok,yok,kademe_5,iyi,normal,bilinmiyor,150_200_m2,4_oda,orta_4_7_kat,1_banyo,yok,yok,yok,dusuk,yok,dusuk,yok,3_4_Milyon_TL_Arasi
Hatay,Arsuz,Satilik,26_30_arasi,bilinmiyor,Klima,bilinmiyor,yok,var,yok,var,var,var,var,var,var,yok,var,var,yok,yok,var,yok,yok,yok,var,yok,yok,yok,yok,yok,yok,yok,yok,yok,yok,var,kademe_5,kotu,kotu,bilinmiyor,200_300_m2,6_oda,orta_4_7_kat,3_banyo_ve_ustu,yok,dusuk,yok,dusuk,yok,orta,yok,10_Milyon_TL_Ustu
Yozgat,Merkez,Satilik,11_15_arasi,5,Kombi_Dogalgaz,bilinmiyor,yok,var,var,var,yok,yok,yok,yok,yok,yok,yok,yok,yok,yok,yok,yok,yok,yok,yok,yok,yok,yok,yok,yok,yok,var,yok,yok,yok,yok,kademe_5,iyi,normal,bilinmiyor,125_150_m2,4_oda,orta_4_7_kat,1_banyo,yok,yok,yok,dusuk,orta,yuksek,yok,2_3_Milyon_TL_Arasi
Hatay,Defne,Satilik,11_15_arasi,bilinmiyor,Merkezi,bilinmiyor,yok,var,yok,var,yok,var,var,var,var,yok,var,var,yok,var,yok,yok,yok,yok,yok,yok,var,yok,var,yok,yok,var,yok,yok,yok,yok,kademe_5,bilinmiyor,normal,bilinmiyor,300_m2_ve_ustu,5_oda,orta_4_7_kat,2_banyo,dusuk,dusuk,dusuk,orta,orta,yuksek,yok,10_Milyon_TL_Ustu
Hatay,Iskenderun,Satilik,26_30_arasi,Giris,Gunes_Enerjisi,bilinmiyor,yok,yok,yok,yok,yok,var,var,yok,var,yok,yok,yok,yok,yok,yok,yok,yok,yok,yok,yok,yok,yok,yok,yok,yok,yok,yok,yok,yok,yok,kademe_5,kotu,bilinmiyor,bilinmiyor,50_75_m2,3_oda,alcak_1_3_kat,1_banyo,yok,yok,yok,dusuk,dusuk,yok,yok,1_5_Milyon_TL_Alti
Yozgat,Merkez,Satilik,6_10_arasi,2,Kombi_Dogalgaz,bilinmiyor,yok,var,var,var,yok,yok,yok,yok,yok,yok,yok,var,yok,var,yok,yok,yok,yok,yok,yok,yok,yok,yok,yok,yok,var,yok,yok,yok,yok,kademe_5,normal,kotu,bilinmiyor,125_150_m2,4_oda,yuksek_8_15_kat,2_banyo,yok,yok,dusuk,dusuk,dusuk,yuksek,yok,3_4_Milyon_TL_Arasi
Hatay,Defne,Satilik,1_5_arasi,1,Kombi_Dogalgaz,bilinmiyor,yok,var,var,var,yok,yok,var,var,yok,yok,var,yok,yok,yok,yok,yok,yok,yok,yok,yok,yok,yok,var,yok,yok,yok,yok,yok,yok,yok,kademe_5,normal,normal,bilinmiyor,150_200_m2,4_oda,orta_4_7_kat,2_banyo,dusuk,dusuk,dusuk,orta,orta,yuksek,yok,4_5_Milyon_TL_Arasi
Hatay,Defne,Satilik,1_5_arasi,1,Kombi_Dogalgaz,bilinmiyor,yok,yok,var,yok,yok,yok,yok,yok,yok,yok,yok,yok,yok,yok,yok,yok,yok,yok,yok,yok,yok,yok,yok,yok,yok,yok,yok,yok,yok,yok,kademe_5,normal,kotu,bilinmiyor,75_100_m2,3_oda,orta_4_7_kat,1_banyo,yok,yok,yok,dusuk,yok,yok,yok,1_5_2_Milyon_TL_Arasi
Hatay,Iskenderun,Satilik,0,3,Klima,bilinmiyor,yok,var,yok,var,yok,yok,var,var,var,yok,yok,yok,yok,yok,yok,yok,yok,yok,yok,yok,yok,yok,yok,yok,yok,yok,yok,yok,yok,yok,kademe_5,bilinmiyor,bilinmiyor,bilinmiyor,50_75_m2,2_oda,orta_4_7_kat,1_banyo,yok,dusuk,yok,dusuk,dusuk,dusuk,yok,2_3_Milyon_TL_Arasi
Tokat,Niksar,Satilik,16_20_arasi,bilinmiyor,Soba,bilinmiyor,yok,yok,yok,yok,yok,yok,yok,yok,yok,yok,yok,yok,yok,yok,yok,yok,yok,yok,yok,yok,yok,yok,yok,yok,yok,var,yok,yok,yok,yok,kademe_5,kotu,kotu,bilinmiyor,200_300_m2,7_oda_ve_ustu,orta_4_7_kat,1_banyo,yok,yok,yok,dusuk,orta,dusuk,yok,2_3_Milyon_TL_Arasi
Hatay,Arsuz,Satilik,6_10_arasi,1,isitma_yok_elektrik,bilinmiyor,yok,yok,var,yok,yok,yok,yok,yok,yok,yok,var,var,yok,yok,yok,yok,yok,yok,yok,yok,yok,yok,yok,yok,yok,yok,yok,yok,yok,yok,kademe_5,normal,normal,bilinmiyor,150_200_m2,4_oda,orta_4_7_kat,2_banyo,yok,yok,yok,dusuk,dusuk,orta,yok,3_4_Milyon_TL_Arasi
Hatay,Iskenderun,Satilik,16_20_arasi,2,Klima,bilinmiyor,yok,var,var,yok,yok,yok,var,var,var,yok,yok,yok,yok,yok,yok,yok,yok,yok,yok,yok,yok,yok,yok,yok,yok,yok,yok,yok,yok,yok,kademe_5,kotu,bilinmiyor,bilinmiyor,75_100_m2,3_oda,orta_4_7_kat,1_banyo,yok,yok,yok,dusuk,dusuk,yuksek,yok,2_3_Milyon_TL_Arasi
Osmaniye,Merkez,Satilik,1_5_arasi,8,Yerden_Isitma,bilinmiyor,yok,var,var,var,yok,yok,yok,yok,yok,yok,yok,yok,yok,yok,yok,yok,yok,yok,yok,yok,yok,yok,yok,yok,yok,yok,yok,yok,yok,yok,kademe_5,bilinmiyor,bilinmiyor,iyi,125_150_m2,4_oda,yuksek_8_15_kat,2_banyo,yok,yok,yok,dusuk,yok,yok,yok,4_5_Milyon_TL_Arasi
Hatay,Arsuz,Satilik,6_10_arasi,Bahce,Kombi,bilinmiyor,yok,yok,yok,var,yok,var,var,var,var,yok,yok,yok,yok,yok,yok,yok,yok,yok,yok,yok,yok,yok,yok,yok,yok,yok,yok,yok,yok,yok,kademe_5,normal,kotu,bilinmiyor,150_200_m2,4_oda,orta_4_7_kat,2_banyo,yok,yok,yok,dusuk,yok,yok,yok,10_Milyon_TL_Ustu
Kahramanmaras,Onikisubat,Satilik,0,1,Merkezi,bilinmiyor,yok,var,yok,var,yok,var,yok,yok,var,yok,var,yok,yok,yok,yok,yok,yok,yok,yok,yok,yok,yok,yok,yok,yok,var,yok,yok,yok,yok,kademe_5,kotu,bilinmiyor,iyi,150_200_m2,4_oda,yuksek_8_15_kat,2_banyo,dusuk,yok,yok,dusuk,orta,yuksek,yok,4_5_Milyon_TL_Arasi
Hatay,Arsuz,Satilik,11_15_arasi,En_Ust_Kat,Gunes_Enerjisi,bilinmiyor,yok,var,yok,yok,yok,var,var,var,var,yok,yok,yok,yok,yok,yok,yok,yok,yok,yok,yok,yok,yok,yok,yok,yok,yok,yok,yok,yok,yok,kademe_5,normal,normal,kotu,150_200_m2,4_oda,orta_4_7_kat,1_banyo,yok,yok,yok,dusuk,yok,yok,yok,5_7_Bucuk_Milyon_TL_Arasi
Erzurum,Palandoken,Satilik,1_5_arasi,1,bilinmiyor,bilinmiyor,yok,var,yok,yok,yok,yok,yok,yok,yok,yok,yok,yok,yok,yok,yok,yok,yok,yok,yok,yok,yok,yok,yok,yok,yok,yok,yok,yok,yok,yok,kademe_5,iyi,bilinmiyor,bilinmiyor,150_200_m2,5_oda,alcak_1_3_kat,2_banyo,yok,yok,yok,dusuk,yok,yok,yok,5_7_Bucuk_Milyon_TL_Arasi
Tokat,Merkez,Satilik,26_30_arasi,Giris,Kombi_Dogalgaz,bilinmiyor,yok,yok,var,yok,yok,yok,var,var,yok,yok,var,yok,yok,yok,yok,yok,yok,yok,yok,yok,yok,yok,yok,yok,yok,var,yok,yok,yok,yok,kademe_5,normal,bilinmiyor,bilinmiyor,125_150_m2,4_oda,orta_4_7_kat,1_banyo,yok,yok,yok,dusuk,yok,orta,yok,2_3_Milyon_TL_Arasi
Tokat,Merkez,Satilik,1_5_arasi,2,Kombi_Dogalgaz,bilinmiyor,yok,var,var,var,yok,var,var,yok,yok,yok,var,yok,yok,var,yok,yok,yok,yok,yok,yok,yok,yok,var,yok,yok,var,yok,yok,yok,yok,kademe_5,bilinmiyor,bilinmiyor,bilinmiyor,100_125_m2,3_oda,orta_4_7_kat,1_banyo,dusuk,yok,yok,orta,orta,yuksek,yok,5_7_Bucuk_Milyon_TL_Arasi
Hatay,Iskenderun,Satilik,1_5_arasi,3,Kombi,bilinmiyor,yok,var,var,var,yok,yok,yok,yok,yok,yok,yok,yok,yok,yok,yok,yok,yok,yok,yok,yok,yok,yok,yok,yok,yok,yok,yok,yok,yok,yok,kademe_5,iyi,normal,kotu,100_125_m2,3_oda,orta_4_7_kat,1_banyo,yok,yok,yok,dusuk,yok,dusuk,yok,2_3_Milyon_TL_Arasi
Tokat,Merkez,Satilik,6_10_arasi,8,Kombi,bilinmiyor,yok,var,yok,var,yok,var,var,var,yok,yok,var,var,yok,var,yok,yok,yok,yok,yok,yok,yok,yok,yok,yok,yok,var,var,yok,yok,yok,kademe_5,iyi,iyi,bilinmiyor,200_300_m2,7_oda_ve_ustu,yuksek_8_15_kat,3_banyo_ve_ustu,dusuk,dusuk,dusuk,dusuk,yuksek,yuksek,yok,7_Bucuk_10_Milyon_TL_Arasi
Yozgat,Candir,Satilik,26_30_arasi,bilinmiyor,Soba,bilinmiyor,yok,yok,yok,yok,yok,yok,yok,var,yok,yok,yok,yok,yok,yok,yok,yok,yok,yok,yok,yok,yok,yok,yok,yok,yok,yok,yok,yok,yok,yok,kademe_5,kotu,bilinmiyor,bilinmiyor,200_300_m2,5_oda,alcak_1_3_kat,1_banyo,yok,yok,yok,dusuk,yok,yok,yok,2_3_Milyon_TL_Arasi
Hatay,Belen,Satilik,11_15_arasi,En_Ust_Kat,Kombi_Dogalgaz,bilinmiyor,yok,var,var,var,yok,yok,yok,yok,yok,yok,var,yok,yok,var,yok,yok,yok,yok,yok,yok,yok,var,var,yok,yok,var,yok,yok,yok,yok,kademe_5,iyi,kotu,normal,75_100_m2,3_oda,orta_4_7_kat,1_banyo,dusuk,yok,yok,orta,yuksek,yuksek,yok,2_3_Milyon_TL_Arasi
Hatay,Iskenderun,Satilik,31_ve_uzeri,5,Klima,bilinmiyor,yok,var,var,var,yok,var,yok,var,yok,yok,var,yok,yok,yok,yok,yok,yok,yok,yok,yok,yok,yok,yok,yok,yok,var,yok,yok,yok,yok,kademe_5,kotu,normal,normal,100_125_m2,3_oda,orta_4_7_kat,1_banyo,yok,yok,yok,orta,yuksek,yuksek,yok,2_3_Milyon_TL_Arasi
Tokat,Merkez,Satilik,31_ve_uzeri,4,Kombi_Dogalgaz,bilinmiyor,yok,var,var,yok,yok,var,var,var,yok,yok,var,yok,yok,var,yok,yok,yok,yok,yok,yok,yok,yok,var,yok,yok,var,yok,yok,yok,yok,kademe_5,iyi,normal,bilinmiyor,125_150_m2,4_oda,orta_4_7_kat,1_banyo,yok,yok,yok,dusuk,orta,orta,yok,3_4_Milyon_TL_Arasi
Hatay,Dortyol,Satilik,0,3,Kombi,bilinmiyor,yok,var,yok,var,yok,var,var,var,yok,yok,var,var,yok,var,yok,yok,yok,yok,yok,yok,yok,yok,yok,yok,yok,yok,yok,yok,yok,yok,kademe_5,kotu,iyi,bilinmiyor,125_150_m2,4_oda,orta_4_7_kat,2_banyo,yok,dusuk,dusuk,dusuk,yuksek,yuksek,yok,5_7_Bucuk_Milyon_TL_Arasi
Yozgat,Merkez,Satilik,6_10_arasi,4,Kombi,bilinmiyor,yok,var,var,var,yok,yok,yok,var,var,yok,var,var,yok,yok,yok,yok,yok,yok,yok,yok,yok,yok,var,yok,yok,var,yok,yok,yok,yok,kademe_5,normal,normal,normal,150_200_m2,5_oda,orta_4_7_kat,2_banyo,yok,yok,dusuk,dusuk,orta,yuksek,yok,5_7_Bucuk_Milyon_TL_Arasi
Tokat,Merkez,Satilik,1_5_arasi,10,Kombi_Dogalgaz,bilinmiyor,yok,var,var,var,yok,yok,yok,yok,yok,yok,var,var,yok,yok,yok,yok,yok,yok,yok,var,yok,yok,var,yok,yok,var,yok,yok,yok,yok,kademe_5,bilinmiyor,bilinmiyor,bilinmiyor,125_150_m2,4_oda,yuksek_8_15_kat,2_banyo,dusuk,dusuk,yok,dusuk,orta,orta,yok,7_Bucuk_10_Milyon_TL_Arasi
Bartin,Merkez,Satilik,0,1,Kombi,bilinmiyor,yok,var,var,var,yok,yok,yok,yok,yok,yok,yok,yok,yok,yok,yok,yok,yok,yok,yok,yok,yok,yok,yok,yok,yok,yok,yok,yok,yok,yok,kademe_5,kotu,bilinmiyor,bilinmiyor,75_100_m2,3_oda,alcak_1_3_kat,1_banyo,yok,yok,yok,dusuk,yok,yok,yok,3_4_Milyon_TL_Arasi
Tokat,Merkez,Satilik,31_ve_uzeri,Bahce,Kombi,bilinmiyor,yok,var,yok,yok,yok,yok,yok,yok,yok,yok,yok,yok,yok,yok,yok,yok,yok,yok,yok,yok,yok,yok,yok,yok,yok,yok,yok,yok,yok,yok,kademe_5,kotu,normal,kotu,150_200_m2,6_oda,bilinmiyor,1_banyo,yok,yok,yok,yok,yok,yok,yok,7_Bucuk_10_Milyon_TL_Arasi
Erzurum,Palandoken,Satilik,11_15_arasi,Zemin,Kombi,bilinmiyor,yok,yok,yok,var,yok,var,var,yok,yok,yok,var,var,yok,var,yok,yok,yok,yok,yok,yok,yok,yok,yok,yok,yok,var,yok,yok,yok,yok,kademe_5,normal,normal,kotu,150_200_m2,4_oda,orta_4_7_kat,2_banyo,yok,yok,dusuk,orta,orta,yuksek,yok,2_3_Milyon_TL_Arasi
Hatay,Belen,Satilik,11_15_arasi,Yuksek_Giris,Klima,bilinmiyor,yok,var,var,var,yok,var,yok,var,var,yok,var,yok,yok,yok,yok,yok,yok,yok,yok,yok,yok,yok,var,yok,yok,var,yok,yok,yok,yok,kademe_5,kotu,bilinmiyor,bilinmiyor,75_100_m2,3_oda,orta_4_7_kat,1_banyo,yok,yok,yok,orta,orta,yuksek,yok,2_3_Milyon_TL_Arasi
Erzurum,Palandoken,Satilik,1_5_arasi,5,Merkezi,bilinmiyor,yok,var,var,var,yok,var,yok,var,yok,yok,var,var,yok,var,yok,yok,yok,yok,yok,yok,yok,yok,yok,yok,yok,var,yok,yok,yok,yok,kademe_5,bilinmiyor,bilinmiyor,bilinmiyor,150_200_m2,4_oda,orta_4_7_kat,2_banyo,dusuk,yok,dusuk,orta,yuksek,orta,yok,5_7_Bucuk_Milyon_TL_Arasi
Tokat,Merkez,Satilik,11_15_arasi,4,Kombi,bilinmiyor,yok,var,var,var,yok,yok,yok,yok,yok,yok,yok,yok,yok,yok,yok,yok,yok,yok,yok,yok,yok,yok,yok,yok,yok,yok,yok,yok,yok,yok,kademe_5,iyi,bilinmiyor,bilinmiyor,125_150_m2,4_oda,orta_4_7_kat,1_banyo,yok,yok,yok,yok,yok,yok,yok,4_5_Milyon_TL_Arasi
Nigde,Merkez,Satilik,1_5_arasi,bilinmiyor,Soba,bilinmiyor,yok,var,yok,var,yok,var,var,var,yok,yok,var,yok,yok,var,yok,yok,yok,yok,yok,yok,yok,yok,yok,yok,yok,var,yok,yok,yok,yok,kademe_5,bilinmiyor,bilinmiyor,bilinmiyor,150_200_m2,3_oda,alcak_1_3_kat,1_banyo,yok,yok,yok,dusuk,dusuk,orta,yok,7_Bucuk_10_Milyon_TL_Arasi
Hatay,Antakya,Satilik,6_10_arasi,2,Kombi_Dogalgaz,bilinmiyor,yok,yok,var,yok,yok,yok,var,var,yok,yok,yok,yok,yok,yok,yok,yok,yok,yok,yok,yok,yok,yok,yok,yok,yok,yok,yok,yok,yok,yok,kademe_5,normal,normal,bilinmiyor,100_125_m2,3_oda,orta_4_7_kat,1_banyo,yok,yok,yok,dusuk,yok,yok,yok,2_3_Milyon_TL_Arasi
Hatay,Arsuz,Satilik,1_5_arasi,Bahce,Klima,bilinmiyor,yok,var,yok,yok,yok,var,var,yok,var,yok,var,yok,yok,yok,yok,yok,yok,yok,yok,yok,yok,yok,var,yok,yok,yok,yok,yok,yok,yok,kademe_5,bilinmiyor,bilinmiyor,bilinmiyor,75_100_m2,3_oda,orta_4_7_kat,1_banyo,yok,yok,dusuk,dusuk,yuksek,yuksek,yok,2_3_Milyon_TL_Arasi
Hatay,Dortyol,Satilik,11_15_arasi,4,Kombi,bilinmiyor,yok,var,var,var,yok,yok,yok,yok,yok,yok,yok,yok,yok,yok,yok,yok,yok,yok,yok,yok,yok,yok,yok,yok,yok,yok,yok,yok,yok,yok,kademe_5,kotu,normal,bilinmiyor,150_200_m2,4_oda,orta_4_7_kat,1_banyo,yok,yok,yok,dusuk,yok,dusuk,yok,3_4_Milyon_TL_Arasi
Tokat,Merkez,Satilik,0,3,Yerden_Isitma,bilinmiyor,yok,yok,yok,yok,var,yok,yok,yok,yok,yok,var,yok,yok,yok,yok,yok,yok,yok,yok,yok,yok,yok,yok,yok,yok,yok,yok,yok,yok,yok,kademe_5,iyi,normal,bilinmiyor,50_75_m2,2_oda,orta_4_7_kat,1_banyo,yok,yok,yok,yok,yuksek,yuksek,yok,3_4_Milyon_TL_Arasi
Nigde,Merkez,Satilik,11_15_arasi,3,Merkezi,bilinmiyor,yok,var,var,var,yok,yok,var,var,yok,yok,var,yok,yok,var,yok,yok,yok,yok,yok,yok,yok,yok,yok,yok,yok,var,yok,yok,yok,yok,kademe_5,bilinmiyor,kotu,kotu,125_150_m2,3_oda,yuksek_8_15_kat,1_banyo,yok,dusuk,dusuk,dusuk,orta,yuksek,yok,3_4_Milyon_TL_Arasi
Hatay,Iskenderun,Satilik,1_5_arasi,5,Kombi_Dogalgaz,bilinmiyor,yok,yok,var,yok,yok,yok,yok,yok,yok,yok,var,var,yok,yok,yok,yok,yok,yok,yok,yok,yok,yok,yok,yok,yok,yok,yok,yok,yok,yok,kademe_5,normal,bilinmiyor,bilinmiyor,150_200_m2,4_oda,yuksek_8_15_kat,2_banyo,yok,yok,yok,dusuk,yok,dusuk,yok,3_4_Milyon_TL_Arasi
Osmaniye,Merkez,Satilik,6_10_arasi,1,Kombi,bilinmiyor,yok,var,var,yok,yok,var,yok,yok,var,yok,var,var,yok,yok,yok,yok,yok,yok,yok,yok,yok,yok,yok,yok,yok,var,yok,yok,yok,yok,kademe_5,normal,normal,normal,150_200_m2,4_oda,orta_4_7_kat,2_banyo,dusuk,yok,yok,dusuk,yuksek,yuksek,yok,2_3_Milyon_TL_Arasi
Hatay,Yayladagi,Satilik,1_5_arasi,Bahce,Kat_Kaloriferi,bilinmiyor,yok,var,yok,yok,yok,var,var,var,var,yok,yok,yok,yok,yok,yok,yok,yok,yok,yok,yok,yok,yok,yok,yok,yok,yok,yok,yok,yok,yok,kademe_5,kotu,normal,bilinmiyor,125_150_m2,3_oda,bilinmiyor,1_banyo,yok,yok,yok,orta,dusuk,yok,yok,1_5_2_Milyon_TL_Arasi
Hatay,Antakya,Satilik,6_10_arasi,5,Kombi_Dogalgaz,bilinmiyor,yok,var,var,var,yok,yok,var,var,yok,yok,var,yok,yok,var,yok,yok,yok,yok,yok,yok,yok,yok,yok,yok,yok,var,yok,yok,yok,yok,kademe_5,iyi,bilinmiyor,bilinmiyor,125_150_m2,4_oda,yuksek_8_15_kat,1_banyo,orta,yok,yok,dusuk,yok,yuksek,yok,2_3_Milyon_TL_Arasi
Hatay,Iskenderun,Satilik,11_15_arasi,Ara_Kat,Kombi_Dogalgaz,bilinmiyor,yok,var,var,var,yok,var,var,var,var,yok,var,var,yok,var,yok,yok,yok,yok,yok,yok,yok,yok,yok,yok,yok,yok,yok,yok,yok,yok,kademe_5,iyi,bilinmiyor,kotu,150_200_m2,4_oda,orta_4_7_kat,2_banyo,dusuk,dusuk,yok,orta,orta,yuksek,yok,4_5_Milyon_TL_Arasi
Kahramanmaras,Afsin,Satilik,11_15_arasi,5,Kombi,bilinmiyor,yok,var,var,var,yok,yok,yok,yok,yok,yok,var,yok,yok,var,yok,yok,yok,yok,yok,yok,yok,yok,yok,yok,yok,var,yok,yok,yok,yok,kademe_5,normal,normal,bilinmiyor,125_150_m2,4_oda,orta_4_7_kat,bilinmiyor,yok,yok,yok,dusuk,yok,yuksek,yok,1_5_2_Milyon_TL_Arasi
Erzurum,Palandoken,Satilik,1_5_arasi,4,Merkezi,bilinmiyor,yok,var,var,var,yok,yok,var,var,yok,yok,var,var,yok,yok,yok,yok,yok,yok,yok,yok,yok,yok,yok,yok,yok,yok,yok,yok,yok,yok,kademe_5,iyi,iyi,kotu,150_200_m2,5_oda,yuksek_8_15_kat,2_banyo,dusuk,dusuk,yok,dusuk,orta,yuksek,yok,5_7_Bucuk_Milyon_TL_Arasi
Hatay,Antakya,Satilik,1_5_arasi,1,Kombi_Dogalgaz,bilinmiyor,yok,var,var,var,yok,var,var,var,yok,yok,var,yok,yok,var,yok,yok,yok,yok,yok,yok,yok,yok,var,yok,yok,var,yok,yok,yok,yok,kademe_5,normal,bilinmiyor,bilinmiyor,75_100_m2,3_oda,orta_4_7_kat,1_banyo,dusuk,yok,yok,orta,orta,yuksek,yok,2_3_Milyon_TL_Arasi
Tokat,Merkez,Satilik,26_30_arasi,2,Kombi,bilinmiyor,yok,var,var,var,yok,var,var,var,yok,yok,yok,yok,yok,yok,yok,yok,yok,yok,yok,yok,yok,yok,yok,yok,yok,yok,yok,yok,yok,yok,kademe_5,iyi,iyi,kotu,125_150_m2,3_oda,orta_4_7_kat,1_banyo,yok,yok,yok,dusuk,yok,yok,yok,3_4_Milyon_TL_Arasi
Hatay,Belen,Satilik,0,2,isitma_yok,bilinmiyor,yok,var,yok,yok,yok,yok,yok,yok,yok,yok,yok,yok,yok,yok,yok,yok,yok,yok,yok,yok,yok,yok,yok,yok,yok,yok,yok,yok,yok,yok,kademe_5,bilinmiyor,kotu,bilinmiyor,50_75_m2,3_oda,orta_4_7_kat,1_banyo,yok,yok,yok,dusuk,yok,yok,yok,2_3_Milyon_TL_Arasi
Hatay,Iskenderun,Satilik,6_10_arasi,Giris,Klima,bilinmiyor,yok,yok,yok,yok,yok,yok,yok,yok,yok,yok,yok,yok,yok,yok,yok,yok,yok,yok,yok,yok,yok,yok,yok,yok,yok,yok,yok,yok,yok,yok,kademe_5,normal,normal,normal,75_100_m2,3_oda,orta_4_7_kat,1_banyo,yok,yok,yok,dusuk,yok,dusuk,yok,2_3_Milyon_TL_Arasi
Kahramanmaras,Onikisubat,Satilik,0,Giris,Kombi,bilinmiyor,yok,var,var,var,yok,yok,var,var,yok,yok,var,yok,yok,yok,yok,yok,yok,yok,yok,yok,yok,yok,var,yok,yok,yok,yok,yok,yok,yok,kademe_5,kotu,normal,bilinmiyor,100_125_m2,3_oda,orta_4_7_kat,2_banyo,yok,yok,dusuk,dusuk,yuksek,dusuk,yok,1_5_2_Milyon_TL_Arasi
Hatay,Iskenderun,Satilik,11_15_arasi,Ara_Kat,Kombi_Dogalgaz,bilinmiyor,yok,var,var,var,yok,yok,yok,yok,yok,yok,yok,yok,yok,yok,yok,yok,yok,yok,yok,yok,yok,yok,yok,yok,yok,yok,yok,yok,yok,yok,kademe_5,bilinmiyor,normal,bilinmiyor,100_125_m2,3_oda,orta_4_7_kat,1_banyo,yok,yok,yok,dusuk,yok,dusuk,yok,2_3_Milyon_TL_Arasi
Hatay,Arsuz,Satilik,0,1,isitma_yok_elektrik,bilinmiyor,yok,var,yok,yok,yok,yok,yok,yok,yok,yok,var,yok,yok,var,yok,yok,yok,yok,yok,yok,yok,yok,yok,yok,yok,yok,yok,yok,yok,yok,kademe_5,iyi,iyi,bilinmiyor,50_75_m2,3_oda,orta_4_7_kat,1_banyo,yok,yok,yok,dusuk,dusuk,orta,yok,3_4_Milyon_TL_Arasi
Osmaniye,Hasanbeyli,Satilik,1_5_arasi,Ara_Kat,Klima,bilinmiyor,yok,var,var,var,yok,var,var,yok,yok,yok,var,yok,yok,yok,yok,yok,yok,yok,yok,yok,yok,yok,var,yok,yok,yok,yok,yok,yok,yok,kademe_5,iyi,kotu,bilinmiyor,100_125_m2,3_oda,orta_4_7_kat,1_banyo,yok,yok,yok,dusuk,dusuk,orta,yok,2_3_Milyon_TL_Arasi
Kahramanmaras,Onikisubat,Satilik,6_10_arasi,2,Kombi_Dogalgaz,bilinmiyor,yok,var,var,var,yok,var,var,var,var,yok,yok,var,yok,yok,yok,yok,yok,yok,yok,yok,yok,yok,var,yok,yok,var,yok,yok,yok,yok,kademe_5,normal,iyi,kotu,300_m2_ve_ustu,6_oda,yuksek_8_15_kat,2_banyo,dusuk,dusuk,dusuk,orta,orta,orta,yok,5_7_Bucuk_Milyon_TL_Arasi
Hatay,Arsuz,Satilik,16_20_arasi,bilinmiyor,Klima,bilinmiyor,yok,var,yok,var,yok,yok,var,var,yok,yok,var,var,yok,yok,var,yok,yok,yok,var,yok,yok,var,var,yok,yok,yok,var,yok,yok,yok,kademe_5,iyi,kotu,bilinmiyor,150_200_m2,4_oda,alcak_1_3_kat,2_banyo,dusuk,dusuk,dusuk,yok,dusuk,yuksek,dusuk,10_Milyon_TL_Ustu
Tokat,Turhal,Satilik,31_ve_uzeri,Zemin,Kombi,bilinmiyor,yok,yok,yok,var,yok,var,yok,yok,yok,yok,yok,yok,yok,yok,yok,yok,yok,yok,yok,yok,yok,yok,yok,yok,yok,yok,yok,yok,yok,yok,kademe_5,kotu,kotu,bilinmiyor,125_150_m2,3_oda,orta_4_7_kat,1_banyo,yok,yok,yok,dusuk,yok,yok,yok,1_5_2_Milyon_TL_Arasi
Hatay,Antakya,Satilik,11_15_arasi,Yuksek_Giris,Kombi_Dogalgaz,bilinmiyor,yok,var,yok,var,yok,var,var,var,var,yok,var,yok,yok,yok,yok,yok,yok,yok,yok,yok,yok,yok,yok,yok,yok,var,yok,yok,yok,yok,kademe_5,normal,normal,kotu,150_200_m2,4_oda,orta_4_7_kat,2_banyo,dusuk,yok,yok,orta,orta,yuksek,yok,2_3_Milyon_TL_Arasi
Hatay,Iskenderun,Satilik,0,Yuksek_Giris,Kombi,bilinmiyor,yok,var,yok,yok,yok,yok,yok,yok,yok,yok,yok,yok,yok,yok,yok,yok,yok,yok,yok,yok,yok,yok,yok,yok,yok,yok,yok,yok,yok,yok,kademe_5,iyi,bilinmiyor,bilinmiyor,200_300_m2,4_oda,orta_4_7_kat,3_banyo_ve_ustu,yok,yok,yok,dusuk,yok,yok,yok,10_Milyon_TL_Ustu
Kahramanmaras,Dulkadiroglu,Satilik,6_10_arasi,4,Kombi,bilinmiyor,yok,yok,yok,var,var,yok,var,yok,yok,yok,var,yok,yok,yok,yok,yok,yok,yok,yok,yok,yok,yok,yok,yok,yok,var,yok,yok,yok,yok,kademe_5,bilinmiyor,normal,kotu,0_50_m2,2_oda,orta_4_7_kat,1_banyo,dusuk,yok,yok,dusuk,orta,yuksek,yok,1_5_2_Milyon_TL_Arasi
Kahramanmaras,Onikisubat,Satilik,11_15_arasi,Zemin,Kombi_Dogalgaz,bilinmiyor,yok,yok,yok,yok,yok,yok,yok,yok,yok,yok,yok,yok,yok,yok,yok,yok,yok,yok,yok,yok,yok,yok,yok,yok,yok,yok,yok,yok,yok,yok,kademe_5,kotu,kotu,bilinmiyor,200_300_m2,5_oda,yuksek_8_15_kat,1_banyo,yok,yok,yok,dusuk,yok,yok,yok,5_7_Bucuk_Milyon_TL_Arasi
Hatay,Defne,Satilik,1_5_arasi,4,Kombi_Dogalgaz,bilinmiyor,yok,var,var,var,yok,yok,var,var,yok,yok,var,yok,yok,var,yok,yok,yok,yok,yok,yok,yok,yok,yok,yok,yok,yok,yok,yok,yok,yok,kademe_5,iyi,normal,kotu,125_150_m2,3_oda,alcak_1_3_kat,1_banyo,dusuk,dusuk,yok,dusuk,yok,yuksek,yok,2_3_Milyon_TL_Arasi
Hatay,Antakya,Satilik,11_15_arasi,7,Merkezi,bilinmiyor,yok,var,var,var,yok,yok,var,var,yok,yok,var,yok,yok,var,yok,yok,yok,yok,yok,yok,yok,yok,var,yok,yok,var,yok,yok,yok,yok,kademe_5,iyi,bilinmiyor,bilinmiyor,75_100_m2,3_oda,yuksek_8_15_kat,1_banyo,dusuk,yok,yok,orta,orta,yuksek,yok,1_5_2_Milyon_TL_Arasi
Hatay,Arsuz,Satilik,1_5_arasi,Villa_Kati,Gunes_Enerjisi,bilinmiyor,yok,yok,yok,yok,yok,yok,yok,yok,yok,yok,yok,yok,yok,yok,yok,yok,yok,yok,var,yok,yok,yok,yok,yok,yok,yok,var,yok,yok,yok,kademe_5,normal,normal,bilinmiyor,150_200_m2,4_oda,alcak_1_3_kat,3_banyo_ve_ustu,dusuk,yok,yok,dusuk,yok,yok,yok,10_Milyon_TL_Ustu
Nigde,Ciftlik,Satilik,21_25_arasi,bilinmiyor,Soba,bilinmiyor,yok,var,yok,yok,yok,var,var,var,var,yok,var,yok,yok,yok,yok,yok,yok,yok,yok,yok,yok,yok,var,yok,yok,var,yok,yok,yok,yok,kademe_5,bilinmiyor,bilinmiyor,bilinmiyor,150_200_m2,3_oda,alcak_1_3_kat,bilinmiyor,yok,yok,yok,dusuk,yok,orta,yok,1_5_Milyon_TL_Alti
Erzurum,Yakutiye,Satilik,0,7,Merkezi,bilinmiyor,yok,var,var,yok,yok,yok,var,var,yok,yok,var,var,yok,var,yok,yok,yok,yok,yok,yok,yok,yok,yok,yok,yok,yok,yok,yok,yok,yok,kademe_5,bilinmiyor,iyi,normal,150_200_m2,4_oda,yuksek_8_15_kat,2_banyo,yok,dusuk,yok,dusuk,yok,orta,yok,4_5_Milyon_TL_Arasi
Kahramanmaras,Onikisubat,Satilik,0,1,Merkezi,bilinmiyor,yok,var,yok,yok,yok,var,yok,var,var,yok,var,var,yok,var,yok,yok,yok,yok,yok,yok,yok,yok,yok,yok,yok,var,yok,yok,yok,yok,kademe_5,bilinmiyor,iyi,bilinmiyor,200_300_m2,6_oda,yuksek_8_15_kat,2_banyo,dusuk,dusuk,yok,yok,yok,yuksek,yok,7_Bucuk_10_Milyon_TL_Arasi
Hatay,Arsuz,Satilik,21_25_arasi,bilinmiyor,Gunes_Enerjisi,bilinmiyor,yok,yok,yok,yok,yok,yok,yok,yok,yok,yok,yok,yok,yok,yok,yok,yok,yok,yok,yok,yok,yok,yok,yok,yok,yok,yok,yok,yok,yok,yok,kademe_5,normal,bilinmiyor,kotu,300_m2_ve_ustu,4_oda,alcak_1_3_kat,1_banyo,yok,yok,yok,dusuk,yok,yok,yok,10_Milyon_TL_Ustu
Nigde,Merkez,Satilik,6_10_arasi,7,Kombi,bilinmiyor,yok,var,var,var,yok,var,var,yok,var,yok,yok,yok,yok,yok,yok,yok,yok,yok,yok,yok,yok,yok,var,yok,yok,var,yok,yok,yok,yok,kademe_5,normal,normal,bilinmiyor,125_150_m2,4_oda,yuksek_8_15_kat,1_banyo,yok,yok,yok,dusuk,orta,yok,yok,3_4_Milyon_TL_Arasi
Osmaniye,Toprakkale,Satilik,1_5_arasi,1,bilinmiyor,bilinmiyor,yok,var,var,yok,yok,yok,yok,yok,yok,yok,yok,yok,yok,yok,yok,yok,yok,yok,yok,yok,yok,yok,yok,yok,yok,yok,yok,yok,yok,yok,kademe_5,normal,kotu,bilinmiyor,150_200_m2,5_oda,alcak_1_3_kat,1_banyo,yok,yok,yok,dusuk,yok,yok,yok,4_5_Milyon_TL_Arasi
Hatay,Payas,Satilik,6_10_arasi,2,Kombi_Dogalgaz,bilinmiyor,yok,var,var,var,yok,yok,var,var,yok,yok,var,var,yok,var,yok,yok,yok,var,yok,yok,yok,var,yok,yok,yok,var,yok,yok,yok,yok,kademe_5,normal,kotu,iyi,200_300_m2,4_oda,orta_4_7_kat,2_banyo,orta,dusuk,yok,dusuk,orta,yuksek,yok,3_4_Milyon_TL_Arasi
Hatay,Arsuz,Satilik,26_30_arasi,bilinmiyor,Klima,bilinmiyor,yok,yok,yok,var,yok,var,var,var,var,yok,yok,yok,yok,yok,yok,yok,yok,yok,yok,yok,yok,var,var,yok,yok,yok,yok,var,yok,yok,kademe_5,normal,kotu,kotu,300_m2_ve_ustu,4_oda,alcak_1_3_kat,1_banyo,yok,yok,yok,dusuk,yok,orta,yok,10_Milyon_TL_Ustu
Nigde,Bor,Satilik,16_20_arasi,1,bilinmiyor,bilinmiyor,yok,var,var,yok,yok,yok,yok,yok,yok,yok,yok,yok,yok,yok,yok,yok,yok,yok,yok,yok,yok,yok,yok,yok,yok,yok,yok,yok,yok,yok,kademe_5,bilinmiyor,bilinmiyor,bilinmiyor,50_75_m2,3_oda,alcak_1_3_kat,1_banyo,yok,yok,yok,dusuk,yok,yok,yok,2_3_Milyon_TL_Arasi
Hatay,Iskenderun,Satilik,1_5_arasi,1,Kombi,bilinmiyor,yok,var,yok,var,yok,var,var,var,var,yok,var,yok,yok,yok,yok,yok,yok,yok,yok,yok,yok,yok,yok,yok,yok,var,yok,yok,yok,yok,kademe_5,normal,iyi,bilinmiyor,150_200_m2,4_oda,orta_4_7_kat,2_banyo,yok,yok,yok,dusuk,yok,yuksek,yok,5_7_Bucuk_Milyon_TL_Arasi
Hatay,Arsuz,Satilik,16_20_arasi,Bahce,Klima,bilinmiyor,yok,var,yok,var,var,var,var,var,yok,yok,yok,yok,yok,yok,yok,yok,yok,yok,var,yok,yok,var,var,yok,yok,var,var,yok,yok,yok,kademe_5,bilinmiyor,bilinmiyor,bilinmiyor,150_200_m2,4_oda,alcak_1_3_kat,1_banyo,yok,dusuk,yok,dusuk,dusuk,yuksek,yok,10_Milyon_TL_Ustu
Hatay,Iskenderun,Satilik,6_10_arasi,4,Kombi_Dogalgaz,bilinmiyor,yok,var,var,yok,yok,var,var,yok,yok,yok,var,var,yok,yok,yok,yok,yok,var,yok,yok,yok,yok,yok,yok,yok,yok,yok,yok,var,yok,kademe_5,iyi,normal,normal,200_300_m2,6_oda,orta_4_7_kat,3_banyo_ve_ustu,yok,dusuk,yok,orta,orta,orta,yok,4_5_Milyon_TL_Arasi
Hatay,Belen,Satilik,6_10_arasi,1,Kombi_Dogalgaz,bilinmiyor,yok,var,var,yok,yok,yok,yok,yok,yok,yok,yok,yok,yok,yok,yok,yok,yok,yok,yok,yok,yok,yok,yok,yok,yok,yok,yok,yok,yok,yok,kademe_5,bilinmiyor,bilinmiyor,bilinmiyor,150_200_m2,6_oda,orta_4_7_kat,2_banyo,yok,yok,yok,dusuk,yok,yok,yok,3_4_Milyon_TL_Arasi
Bartin,Merkez,Satilik,1_5_arasi,3,Kombi,bilinmiyor,yok,var,var,var,yok,yok,yok,yok,yok,yok,yok,yok,yok,yok,yok,yok,yok,yok,yok,yok,yok,yok,yok,yok,yok,yok,yok,yok,yok,yok,kademe_5,bilinmiyor,iyi,normal,150_200_m2,5_oda,orta_4_7_kat,2_banyo,yok,yok,yok,dusuk,yok,yok,yok,7_Bucuk_10_Milyon_TL_Arasi
Hatay,Payas,Satilik,1_5_arasi,Ara_Kat,Kombi_Dogalgaz,bilinmiyor,yok,var,var,var,yok,var,var,var,var,yok,var,var,yok,var,yok,yok,yok,yok,yok,yok,yok,yok,yok,yok,yok,var,yok,yok,yok,yok,kademe_5,normal,bilinmiyor,kotu,150_200_m2,4_oda,orta_4_7_kat,2_banyo,yok,yok,yok,dusuk,dusuk,yuksek,yok,3_4_Milyon_TL_Arasi
Erzurum,Palandoken,Satilik,21_25_arasi,6,Merkezi,bilinmiyor,yok,var,var,var,yok,var,yok,var,yok,yok,var,var,yok,yok,var,yok,yok,yok,yok,yok,yok,yok,yok,yok,yok,var,yok,yok,yok,yok,kademe_5,iyi,kotu,bilinmiyor,150_200_m2,4_oda,orta_4_7_kat,2_banyo,dusuk,yok,yok,orta,yuksek,yuksek,yok,5_7_Bucuk_Milyon_TL_Arasi
Yozgat,Merkez,Satilik,21_25_arasi,2,Kombi_Dogalgaz,bilinmiyor,yok,yok,var,var,yok,yok,yok,yok,yok,yok,var,yok,yok,yok,yok,yok,yok,yok,yok,yok,yok,yok,yok,yok,yok,yok,yok,yok,yok,yok,kademe_5,iyi,bilinmiyor,bilinmiyor,125_150_m2,4_oda,alcak_1_3_kat,1_banyo,yok,yok,yok,dusuk,yok,yuksek,yok,1_5_Milyon_TL_Alti
Nigde,Ulukisla,Satilik,1_5_arasi,bilinmiyor,Kat_Kaloriferi,bilinmiyor,yok,yok,yok,yok,yok,var,var,var,var,yok,yok,yok,yok,yok,yok,yok,yok,yok,yok,yok,yok,yok,yok,yok,yok,yok,var,yok,yok,yok,kademe_5,bilinmiyor,bilinmiyor,bilinmiyor,200_300_m2,5_oda,alcak_1_3_kat,2_banyo,yok,yok,yok,dusuk,yok,yok,yok,5_7_Bucuk_Milyon_TL_Arasi
Bartin,Amasra,Satilik,0,1,Merkezi,bilinmiyor,yok,var,var,var,yok,yok,yok,yok,yok,yok,yok,yok,yok,yok,yok,yok,yok,yok,yok,yok,yok,yok,yok,yok,yok,yok,yok,yok,yok,yok,kademe_5,iyi,bilinmiyor,iyi,0_50_m2,2_oda,orta_4_7_kat,1_banyo,yok,yok,yok,dusuk,yok,yok,yok,3_4_Milyon_TL_Arasi
Yozgat,Merkez,Satilik,0,7,Yerden_Isitma,bilinmiyor,yok,var,yok,var,yok,var,yok,var,yok,yok,var,yok,yok,var,yok,yok,yok,yok,yok,yok,yok,yok,var,yok,yok,var,yok,yok,yok,yok,kademe_5,iyi,bilinmiyor,bilinmiyor,75_100_m2,3_oda,yuksek_8_15_kat,1_banyo,dusuk,yok,dusuk,dusuk,yuksek,yuksek,yok,2_3_Milyon_TL_Arasi
Hatay,Samandag,Satilik,31_ve_uzeri,Bahce,Klima,bilinmiyor,yok,var,yok,var,var,var,var,var,var,yok,yok,yok,yok,yok,yok,yok,yok,yok,var,yok,yok,yok,var,yok,yok,yok,var,yok,yok,yok,kademe_5,iyi,bilinmiyor,bilinmiyor,125_150_m2,4_oda,alcak_1_3_kat,2_banyo,yok,dusuk,yok,dusuk,orta,orta,yok,5_7_Bucuk_Milyon_TL_Arasi
Hatay,Erzin,Satilik,21_25_arasi,Bahce,isitma_yok,bilinmiyor,yok,var,yok,var,yok,var,var,var,var,yok,var,yok,yok,yok,yok,yok,yok,yok,yok,yok,yok,yok,var,yok,yok,var,yok,yok,yok,yok,kademe_5,normal,bilinmiyor,normal,150_200_m2,4_oda,bilinmiyor,1_banyo,yok,dusuk,yok,dusuk,yuksek,yuksek,yok,5_7_Bucuk_Milyon_TL_Arasi
Hatay,Iskenderun,Satilik,31_ve_uzeri,Ara_Kat,Klima,bilinmiyor,yok,var,yok,var,yok,var,var,var,var,yok,var,yok,yok,yok,yok,yok,yok,yok,yok,yok,yok,var,var,yok,yok,var,yok,yok,yok,yok,kademe_5,kotu,normal,kotu,125_150_m2,3_oda,orta_4_7_kat,1_banyo,yok,dusuk,yok,orta,yok,yuksek,yok,1_5_Milyon_TL_Alti
Tokat,Merkez,Satilik,1_5_arasi,Yuksek_Giris,Kombi,bilinmiyor,yok,var,var,var,yok,var,var,var,yok,yok,yok,var,yok,var,yok,yok,yok,yok,yok,yok,yok,yok,var,yok,yok,var,yok,yok,yok,yok,kademe_5,bilinmiyor,iyi,bilinmiyor,125_150_m2,4_oda,orta_4_7_kat,2_banyo,dusuk,yok,dusuk,dusuk,orta,yuksek,yok,5_7_Bucuk_Milyon_TL_Arasi
Hatay,Arsuz,Satilik,21_25_arasi,bilinmiyor,Klima,bilinmiyor,yok,var,yok,yok,yok,yok,yok,yok,yok,yok,yok,yok,yok,yok,yok,yok,yok,yok,yok,yok,yok,yok,yok,yok,yok,yok,yok,yok,yok,yok,kademe_5,bilinmiyor,kotu,bilinmiyor,200_300_m2,4_oda,alcak_1_3_kat,1_banyo,yok,dusuk,yok,dusuk,yok,dusuk,yok,7_Bucuk_10_Milyon_TL_Arasi
Hatay,Iskenderun,Satilik,1_5_arasi,Yuksek_Giris,Klima,bilinmiyor,yok,var,var,var,yok,var,yok,yok,var,yok,var,yok,yok,var,yok,yok,yok,yok,yok,yok,yok,yok,yok,yok,yok,var,yok,yok,yok,yok,kademe_5,kotu,normal,bilinmiyor,100_125_m2,4_oda,orta_4_7_kat,1_banyo,dusuk,yok,yok,dusuk,dusuk,yuksek,yok,3_4_Milyon_TL_Arasi
Nigde,Bor,Satilik,6_10_arasi,4,Merkezi,bilinmiyor,yok,var,yok,var,yok,var,yok,yok,var,yok,yok,yok,yok,yok,yok,yok,yok,yok,yok,yok,yok,yok,yok,yok,yok,yok,yok,yok,yok,yok,kademe_5,iyi,bilinmiyor,bilinmiyor,100_125_m2,3_oda,orta_4_7_kat,1_banyo,yok,yok,yok,dusuk,yok,yok,yok,2_3_Milyon_TL_Arasi
Hatay,Iskenderun,Satilik,11_15_arasi,2,Kombi,bilinmiyor,yok,yok,yok,yok,yok,yok,yok,yok,yok,yok,yok,yok,yok,yok,yok,yok,yok,yok,yok,yok,yok,yok,yok,yok,yok,yok,yok,yok,yok,yok,kademe_5,normal,iyi,normal,150_200_m2,4_oda,orta_4_7_kat,2_banyo,yok,yok,yok,dusuk,yok,yok,yok,3_4_Milyon_TL_Arasi
Erzurum,Yakutiye,Satilik,6_10_arasi,8,Merkezi,bilinmiyor,yok,var,var,var,yok,yok,var,var,yok,yok,var,var,yok,yok,yok,yok,yok,yok,yok,yok,yok,yok,yok,yok,yok,var,yok,yok,yok,yok,kademe_5,bilinmiyor,normal,normal,200_300_m2,5_oda,yuksek_8_15_kat,2_banyo,dusuk,yok,yok,orta,orta,orta,yok,5_7_Bucuk_Milyon_TL_Arasi
Tokat,Niksar,Satilik,0,6,Yerden_Isitma,bilinmiyor,yok,var,yok,yok,yok,var,yok,yok,var,yok,yok,yok,yok,yok,yok,yok,yok,yok,yok,yok,yok,yok,var,yok,yok,yok,yok,yok,yok,yok,kademe_5,iyi,iyi,bilinmiyor,100_125_m2,4_oda,orta_4_7_kat,1_banyo,yok,yok,yok,dusuk,dusuk,orta,yok,4_5_Milyon_TL_Arasi
Hatay,Dortyol,Satilik,6_10_arasi,4,Kombi_Dogalgaz,bilinmiyor,yok,var,var,var,yok,var,yok,var,yok,yok,var,var,yok,var,yok,yok,yok,yok,yok,yok,yok,yok,yok,yok,yok,var,yok,yok,yok,yok,kademe_5,bilinmiyor,bilinmiyor,bilinmiyor,300_m2_ve_ustu,5_oda,orta_4_7_kat,3_banyo_ve_ustu,dusuk,dusuk,yok,dusuk,dusuk,orta,yok,5_7_Bucuk_Milyon_TL_Arasi
Hatay,Dortyol,Satilik,6_10_arasi,4,Kombi,bilinmiyor,yok,var,yok,var,yok,var,var,var,yok,yok,var,yok,yok,yok,yok,yok,yok,yok,yok,yok,yok,yok,var,yok,yok,var,yok,yok,yok,yok,kademe_5,iyi,kotu,normal,125_150_m2,4_oda,orta_4_7_kat,1_banyo,dusuk,yok,yok,dusuk,orta,yuksek,yok,3_4_Milyon_TL_Arasi
Hatay,Arsuz,Satilik,11_15_arasi,Giris,Klima,bilinmiyor,yok,yok,yok,yok,var,yok,yok,var,var,yok,var,var,yok,yok,yok,yok,yok,yok,yok,yok,yok,yok,yok,yok,yok,yok,yok,yok,yok,yok,kademe_5,bilinmiyor,normal,bilinmiyor,200_300_m2,3_oda,orta_4_7_kat,1_banyo,yok,dusuk,dusuk,dusuk,yok,yuksek,yok,5_7_Bucuk_Milyon_TL_Arasi
Tokat,Merkez,Satilik,0,3,Kombi_Dogalgaz,bilinmiyor,yok,yok,var,yok,yok,yok,yok,yok,yok,yok,var,yok,yok,var,yok,yok,yok,yok,yok,yok,yok,yok,yok,yok,yok,yok,yok,yok,yok,yok,kademe_5,normal,normal,kotu,0_50_m2,2_oda,orta_4_7_kat,1_banyo,yok,yok,yok,dusuk,yok,dusuk,yok,2_3_Milyon_TL_Arasi
Yozgat,Sorgun,Satilik,0,8,Kombi,bilinmiyor,yok,var,yok,var,yok,yok,var,var,yok,yok,yok,var,yok,yok,yok,yok,yok,yok,yok,yok,yok,yok,yok,yok,yok,var,yok,yok,yok,yok,kademe_5,bilinmiyor,bilinmiyor,kotu,125_150_m2,4_oda,yuksek_8_15_kat,2_banyo,yok,yok,yok,dusuk,orta,yuksek,yok,3_4_Milyon_TL_Arasi
Tokat,Merkez,Satilik,0,Ara_Kat,Kombi_Dogalgaz,bilinmiyor,yok,var,var,yok,yok,var,var,var,var,yok,yok,yok,yok,yok,yok,yok,yok,yok,yok,yok,yok,yok,yok,yok,yok,yok,yok,yok,yok,yok,kademe_5,normal,normal,iyi,50_75_m2,2_oda,orta_4_7_kat,1_banyo,yok,yok,yok,dusuk,yok,yok,yok,2_3_Milyon_TL_Arasi
Erzurum,Yakutiye,Satilik,31_ve_uzeri,1,Kombi_Dogalgaz,bilinmiyor,yok,yok,yok,yok,yok,yok,yok,yok,yok,yok,yok,yok,yok,yok,yok,yok,yok,yok,yok,yok,yok,yok,yok,yok,yok,yok,yok,yok,yok,yok,kademe_5,normal,kotu,bilinmiyor,75_100_m2,3_oda,orta_4_7_kat,1_banyo,yok,yok,yok,dusuk,yok,yok,yok,1_5_Milyon_TL_Alti
Hatay,Defne,Satilik,1_5_arasi,En_Ust_Kat,Kombi_Dogalgaz,bilinmiyor,yok,var,var,var,yok,yok,var,var,yok,yok,var,yok,yok,var,yok,yok,yok,yok,yok,yok,yok,yok,var,yok,yok,var,yok,yok,yok,yok,kademe_5,normal,bilinmiyor,bilinmiyor,100_125_m2,3_oda,orta_4_7_kat,1_banyo,dusuk,dusuk,yok,orta,orta,yuksek,yok,2_3_Milyon_TL_Arasi
Cankiri,Merkez,Satilik,11_15_arasi,2,Merkezi,bilinmiyor,yok,yok,var,yok,yok,yok,yok,var,yok,yok,yok,yok,yok,yok,yok,yok,yok,yok,yok,yok,yok,yok,yok,yok,yok,var,yok,yok,yok,yok,kademe_5,normal,normal,normal,125_150_m2,4_oda,orta_4_7_kat,2_banyo,yok,yok,yok,orta,orta,yok,yok,4_5_Milyon_TL_Arasi
Tokat,Merkez,Satilik,26_30_arasi,5,Kombi,bilinmiyor,yok,var,var,yok,yok,yok,yok,yok,yok,yok,yok,yok,yok,yok,yok,yok,yok,yok,yok,yok,yok,yok,yok,yok,yok,yok,yok,yok,yok,yok,kademe_5,iyi,iyi,bilinmiyor,125_150_m2,4_oda,orta_4_7_kat,1_banyo,yok,yok,yok,yok,yok,yok,yok,3_4_Milyon_TL_Arasi
Nigde,Merkez,Satilik,6_10_arasi,3,Merkezi,bilinmiyor,yok,var,var,var,var,var,var,var,yok,yok,var,yok,yok,var,yok,yok,yok,yok,yok,yok,yok,yok,var,yok,yok,var,yok,yok,yok,yok,kademe_5,normal,kotu,bilinmiyor,0_50_m2,2_oda,orta_4_7_kat,1_banyo,dusuk,dusuk,dusuk,dusuk,yuksek,yuksek,yok,1_5_2_Milyon_TL_Arasi
Erzurum,Yakutiye,Satilik,0,3,Merkezi,bilinmiyor,yok,yok,yok,yok,yok,var,var,yok,yok,yok,yok,yok,yok,yok,yok,yok,yok,yok,yok,yok,yok,yok,yok,yok,yok,yok,yok,yok,yok,yok,kademe_5,iyi,iyi,bilinmiyor,150_200_m2,4_oda,yuksek_8_15_kat,2_banyo,yok,yok,yok,dusuk,yok,yok,yok,4_5_Milyon_TL_Arasi
Hatay,Hassa,Satilik,1_5_arasi,Ara_Kat,Merkezi,bilinmiyor,yok,yok,yok,yok,yok,yok,yok,var,yok,yok,yok,yok,yok,yok,yok,yok,yok,yok,yok,yok,yok,yok,yok,yok,yok,yok,yok,yok,yok,yok,kademe_5,iyi,normal,iyi,100_125_m2,4_oda,orta_4_7_kat,1_banyo,yok,yok,yok,dusuk,dusuk,yok,yok,2_3_Milyon_TL_Arasi
Hatay,Arsuz,Satilik,0,2,Kombi,bilinmiyor,yok,var,var,var,yok,yok,yok,yok,yok,yok,yok,yok,yok,yok,yok,yok,yok,yok,yok,yok,yok,yok,yok,yok,yok,yok,yok,yok,yok,yok,kademe_5,iyi,bilinmiyor,bilinmiyor,125_150_m2,4_oda,orta_4_7_kat,2_banyo,yok,yok,yok,dusuk,yok,dusuk,yok,5_7_Bucuk_Milyon_TL_Arasi
Hatay,Belen,Satilik,21_25_arasi,1,Kombi,bilinmiyor,yok,var,yok,var,yok,yok,yok,yok,yok,yok,yok,yok,yok,yok,yok,yok,yok,yok,yok,yok,yok,yok,yok,yok,yok,yok,yok,yok,yok,yok,kademe_5,kotu,kotu,bilinmiyor,300_m2_ve_ustu,6_oda,orta_4_7_kat,2_banyo,yok,yok,yok,dusuk,yok,dusuk,yok,10_Milyon_TL_Ustu
Hatay,Iskenderun,Satilik,0,3,Kombi,bilinmiyor,yok,var,var,var,yok,yok,yok,yok,yok,yok,yok,yok,yok,yok,yok,yok,yok,yok,yok,yok,yok,var,yok,yok,yok,yok,yok,yok,yok,yok,kademe_5,kotu,bilinmiyor,bilinmiyor,0_50_m2,2_oda,orta_4_7_kat,1_banyo,yok,yok,yok,dusuk,yok,yok,yok,1_5_2_Milyon_TL_Arasi
Hatay,Antakya,Satilik,6_10_arasi,1,Klima,bilinmiyor,yok,yok,yok,yok,var,yok,yok,yok,yok,yok,yok,yok,yok,yok,yok,yok,yok,yok,yok,yok,yok,yok,yok,yok,yok,yok,yok,yok,yok,yok,kademe_5,kotu,iyi,bilinmiyor,50_75_m2,2_oda,orta_4_7_kat,1_banyo,yok,yok,yok,dusuk,yok,dusuk,yok,2_3_Milyon_TL_Arasi
Hatay,Arsuz,Satilik,0,3,Kombi,bilinmiyor,yok,yok,var,var,yok,var,var,var,var,yok,var,yok,yok,yok,yok,yok,yok,yok,yok,yok,yok,yok,yok,yok,yok,yok,yok,yok,yok,yok,kademe_5,bilinmiyor,normal,bilinmiyor,100_125_m2,3_oda,orta_4_7_kat,1_banyo,yok,dusuk,yok,dusuk,yok,orta,yok,3_4_Milyon_TL_Arasi
Tokat,Niksar,Satilik,0,Yuksek_Giris,Kombi_Dogalgaz,bilinmiyor,yok,var,var,var,yok,var,yok,var,yok,yok,var,yok,yok,var,yok,yok,yok,yok,yok,yok,yok,yok,yok,yok,yok,var,yok,yok,yok,yok,kademe_5,kotu,normal,kotu,50_75_m2,2_oda,orta_4_7_kat,1_banyo,dusuk,yok,yok,orta,orta,orta,yok,2_3_Milyon_TL_Arasi
Tokat,Niksar,Satilik,0,Ara_Kat,Dogalgaz_Sobasi,bilinmiyor,yok,var,var,var,yok,yok,yok,var,yok,yok,var,yok,yok,var,yok,yok,yok,var,yok,yok,yok,yok,var,yok,yok,var,yok,yok,yok,yok,kademe_5,kotu,normal,kotu,50_75_m2,2_oda,orta_4_7_kat,1_banyo,yok,yok,yok,orta,orta,yuksek,yok,2_3_Milyon_TL_Arasi
Tokat,Niksar,Satilik,1_5_arasi,En_Ust_Kat,Kombi_Dogalgaz,bilinmiyor,yok,var,var,var,yok,yok,yok,var,yok,yok,var,var,yok,yok,yok,yok,yok,yok,yok,yok,yok,yok,var,yok,yok,var,yok,yok,yok,yok,kademe_5,iyi,iyi,bilinmiyor,150_200_m2,4_oda,orta_4_7_kat,2_banyo,yok,dusuk,yok,dusuk,orta,orta,yok,4_5_Milyon_TL_Arasi
Hatay,Arsuz,Satilik,11_15_arasi,1,Gunes_Enerjisi,bilinmiyor,yok,yok,yok,yok,yok,yok,yok,yok,yok,yok,yok,yok,yok,yok,yok,yok,yok,yok,yok,yok,yok,yok,yok,yok,yok,yok,yok,yok,yok,yok,kademe_5,normal,normal,bilinmiyor,125_150_m2,4_oda,orta_4_7_kat,2_banyo,yok,yok,yok,dusuk,yok,yok,yok,4_5_Milyon_TL_Arasi
Bartin,Merkez,Satilik,21_25_arasi,2,Kombi,bilinmiyor,yok,var,yok,var,yok,yok,yok,yok,yok,yok,yok,yok,yok,yok,yok,yok,yok,yok,yok,yok,yok,yok,yok,yok,yok,yok,yok,yok,yok,yok,kademe_5,normal,bilinmiyor,bilinmiyor,100_125_m2,3_oda,orta_4_7_kat,1_banyo,yok,yok,yok,dusuk,yok,yok,yok,3_4_Milyon_TL_Arasi
Nigde,Ulukisla,Satilik,1_5_arasi,bilinmiyor,Soba,bilinmiyor,yok,var,yok,var,yok,var,var,var,var,yok,yok,yok,yok,yok,yok,yok,yok,yok,yok,yok,yok,yok,var,yok,yok,var,yok,var,yok,yok,kademe_5,bilinmiyor,normal,bilinmiyor,200_300_m2,6_oda,alcak_1_3_kat,2_banyo,yok,dusuk,yok,orta,orta,dusuk,yok,5_7_Bucuk_Milyon_TL_Arasi
Hatay,Arsuz,Satilik,1_5_arasi,En_Ust_Kat,Klima,bilinmiyor,yok,var,var,var,yok,var,var,yok,var,yok,var,yok,yok,var,yok,yok,yok,yok,yok,yok,yok,var,var,yok,yok,var,yok,yok,yok,yok,kademe_5,bilinmiyor,bilinmiyor,bilinmiyor,75_100_m2,3_oda,alcak_1_3_kat,2_banyo,dusuk,yok,yok,dusuk,orta,yuksek,yok,5_7_Bucuk_Milyon_TL_Arasi
Hatay,Dortyol,Satilik,0,3,Kombi_Dogalgaz,bilinmiyor,yok,var,var,yok,yok,var,var,var,var,yok,var,var,yok,yok,yok,yok,yok,var,yok,yok,yok,yok,yok,yok,yok,var,yok,yok,yok,yok,kademe_5,iyi,normal,iyi,125_150_m2,3_oda,orta_4_7_kat,2_banyo,yok,dusuk,yok,dusuk,dusuk,yuksek,yok,4_5_Milyon_TL_Arasi
Osmaniye,Kadirli,Satilik,31_ve_uzeri,2,Soba,bilinmiyor,yok,yok,yok,yok,yok,yok,yok,yok,yok,yok,yok,yok,yok,yok,yok,yok,yok,yok,yok,yok,yok,yok,yok,yok,yok,yok,yok,yok,yok,yok,kademe_5,bilinmiyor,bilinmiyor,bilinmiyor,125_150_m2,4_oda,orta_4_7_kat,1_banyo,yok,yok,yok,dusuk,yok,yok,yok,1_5_2_Milyon_TL_Arasi
Hatay,Defne,Satilik,6_10_arasi,5,Gunes_Enerjisi,bilinmiyor,yok,var,var,var,yok,yok,yok,var,yok,yok,var,var,yok,var,var,yok,yok,yok,yok,yok,yok,yok,var,yok,yok,var,var,yok,yok,yok,kademe_5,normal,normal,normal,300_m2_ve_ustu,6_oda,orta_4_7_kat,2_banyo,dusuk,orta,yok,orta,yok,yuksek,yok,5_7_Bucuk_Milyon_TL_Arasi
Hatay,Payas,Satilik,6_10_arasi,3,Kombi,bilinmiyor,yok,var,var,var,yok,var,yok,yok,var,yok,var,yok,yok,var,yok,yok,yok,yok,yok,yok,yok,yok,var,yok,yok,yok,yok,yok,yok,yok,kademe_5,bilinmiyor,kotu,bilinmiyor,100_125_m2,3_oda,orta_4_7_kat,1_banyo,dusuk,dusuk,dusuk,dusuk,orta,yuksek,yok,2_3_Milyon_TL_Arasi
Hatay,Payas,Satilik,6_10_arasi,3,Klima,bilinmiyor,yok,var,yok,var,yok,yok,var,var,var,yok,yok,yok,yok,yok,yok,yok,yok,yok,yok,yok,yok,yok,yok,yok,yok,yok,yok,yok,yok,yok,kademe_5,kotu,bilinmiyor,kotu,100_125_m2,3_oda,orta_4_7_kat,1_banyo,yok,yok,yok,dusuk,yok,orta,yok,1_5_2_Milyon_TL_Arasi
Hatay,Iskenderun,Satilik,6_10_arasi,En_Ust_Kat,Kombi_Dogalgaz,bilinmiyor,yok,var,var,yok,yok,var,var,var,var,yok,var,yok,yok,var,yok,yok,yok,yok,yok,yok,yok,yok,yok,yok,yok,var,var,yok,yok,yok,kademe_5,bilinmiyor,bilinmiyor,bilinmiyor,300_m2_ve_ustu,6_oda,orta_4_7_kat,2_banyo,yok,yok,yok,orta,orta,yuksek,yok,4_5_Milyon_TL_Arasi
Kahramanmaras,Onikisubat,Satilik,6_10_arasi,6,Kombi,bilinmiyor,yok,var,var,var,yok,var,yok,var,var,yok,yok,var,yok,yok,yok,yok,yok,yok,yok,yok,yok,yok,yok,yok,yok,var,yok,yok,yok,yok,kademe_5,iyi,normal,bilinmiyor,150_200_m2,4_oda,yuksek_8_15_kat,2_banyo,dusuk,yok,yok,dusuk,dusuk,orta,yok,3_4_Milyon_TL_Arasi
Tokat,Merkez,Satilik,26_30_arasi,1,Kombi_Dogalgaz,bilinmiyor,yok,var,yok,yok,yok,var,yok,var,var,yok,var,yok,yok,var,yok,yok,yok,yok,yok,yok,yok,yok,yok,yok,yok,var,yok,yok,yok,yok,kademe_5,kotu,iyi,bilinmiyor,200_300_m2,5_oda,orta_4_7_kat,1_banyo,yok,yok,yok,dusuk,yok,orta,yok,4_5_Milyon_TL_Arasi
Hatay,Payas,Satilik,11_15_arasi,Ara_Kat,Klima,bilinmiyor,yok,var,var,yok,yok,var,var,yok,var,yok,var,var,yok,yok,yok,yok,yok,yok,yok,yok,yok,var,var,yok,yok,var,yok,yok,yok,yok,kademe_5,bilinmiyor,kotu,bilinmiyor,125_150_m2,3_oda,orta_4_7_kat,2_banyo,yok,yok,yok,orta,dusuk,yuksek,yok,3_4_Milyon_TL_Arasi
Kahramanmaras,Onikisubat,Satilik,1_5_arasi,1,Merkezi,bilinmiyor,yok,var,yok,var,yok,var,yok,yok,var,yok,yok,yok,yok,yok,yok,yok,yok,yok,yok,yok,yok,yok,yok,yok,yok,var,yok,yok,yok,yok,kademe_5,normal,normal,kotu,150_200_m2,4_oda,yuksek_8_15_kat,2_banyo,yok,yok,yok,dusuk,orta,dusuk,yok,3_4_Milyon_TL_Arasi
Hatay,Dortyol,Satilik,6_10_arasi,5,Kombi,bilinmiyor,yok,var,var,var,yok,var,var,var,yok,yok,var,var,yok,var,yok,yok,yok,yok,yok,yok,yok,yok,var,yok,yok,var,yok,yok,var,yok,kademe_5,iyi,normal,kotu,300_m2_ve_ustu,5_oda,orta_4_7_kat,2_banyo,dusuk,orta,dusuk,dusuk,orta,yuksek,yok,5_7_Bucuk_Milyon_TL_Arasi
Hatay,Arsuz,Satilik,6_10_arasi,Ara_Kat,Klima,bilinmiyor,yok,var,var,var,yok,yok,yok,yok,yok,yok,var,var,yok,yok,yok,yok,yok,yok,yok,yok,yok,yok,yok,yok,yok,yok,yok,yok,yok,yok,kademe_5,normal,normal,normal,125_150_m2,3_oda,orta_4_7_kat,2_banyo,yok,yok,yok,dusuk,yok,yuksek,yok,3_4_Milyon_TL_Arasi
Hatay,Arsuz,Satilik,1_5_arasi,Zemin,Klima,bilinmiyor,yok,var,yok,var,yok,yok,yok,yok,yok,yok,yok,yok,yok,yok,yok,yok,yok,yok,yok,yok,yok,yok,yok,yok,yok,yok,yok,yok,yok,yok,kademe_5,iyi,bilinmiyor,normal,75_100_m2,3_oda,orta_4_7_kat,1_banyo,yok,yok,yok,dusuk,yok,dusuk,yok,3_4_Milyon_TL_Arasi
Osmaniye,Merkez,Satilik,11_15_arasi,1,bilinmiyor,bilinmiyor,yok,var,var,var,yok,yok,yok,yok,yok,yok,yok,yok,yok,yok,yok,yok,yok,yok,yok,yok,yok,yok,yok,yok,yok,yok,yok,yok,yok,yok,kademe_5,bilinmiyor,normal,bilinmiyor,200_300_m2,6_oda,alcak_1_3_kat,2_banyo,yok,yok,yok,dusuk,yok,yok,yok,3_4_Milyon_TL_Arasi
Hatay,Iskenderun,Satilik,0,1,Kombi,bilinmiyor,yok,var,var,var,yok,yok,yok,yok,yok,yok,yok,yok,yok,yok,yok,yok,yok,yok,yok,yok,yok,yok,yok,yok,yok,yok,yok,yok,yok,yok,kademe_5,normal,iyi,bilinmiyor,125_150_m2,4_oda,orta_4_7_kat,2_banyo,yok,yok,yok,dusuk,yok,yok,yok,5_7_Bucuk_Milyon_TL_Arasi
Tokat,Merkez,Satilik,26_30_arasi,2,Kombi_Dogalgaz,bilinmiyor,yok,yok,yok,yok,var,yok,var,var,yok,yok,yok,yok,yok,yok,yok,yok,yok,yok,yok,yok,yok,yok,yok,yok,yok,yok,yok,yok,yok,yok,kademe_5,normal,kotu,normal,125_150_m2,4_oda,orta_4_7_kat,1_banyo,yok,yok,yok,dusuk,yok,yok,yok,3_4_Milyon_TL_Arasi
Hatay,Arsuz,Satilik,1_5_arasi,bilinmiyor,Klima,bilinmiyor,yok,var,yok,yok,yok,var,var,var,var,yok,yok,yok,yok,yok,yok,yok,yok,yok,yok,yok,yok,yok,yok,yok,yok,yok,yok,var,yok,yok,kademe_5,bilinmiyor,iyi,bilinmiyor,300_m2_ve_ustu,7_oda_ve_ustu,alcak_1_3_kat,2_banyo,yok,yok,yok,dusuk,yok,dusuk,yok,10_Milyon_TL_Ustu
Hatay,Arsuz,Satilik,11_15_arasi,Yuksek_Giris,Klima,bilinmiyor,yok,var,yok,var,var,var,var,var,var,yok,var,yok,yok,yok,yok,yok,yok,yok,yok,yok,yok,yok,yok,yok,yok,yok,yok,yok,yok,yok,kademe_5,bilinmiyor,kotu,bilinmiyor,300_m2_ve_ustu,7_oda_ve_ustu,orta_4_7_kat,2_banyo,yok,yok,yok,dusuk,yok,orta,yok,5_7_Bucuk_Milyon_TL_Arasi
Hatay,Iskenderun,Satilik,21_25_arasi,4,Klima,bilinmiyor,yok,var,var,yok,yok,yok,yok,yok,yok,yok,yok,yok,yok,yok,yok,yok,yok,yok,yok,yok,yok,yok,yok,yok,yok,var,yok,yok,yok,yok,kademe_5,bilinmiyor,bilinmiyor,kotu,125_150_m2,4_oda,orta_4_7_kat,1_banyo,yok,yok,yok,dusuk,yok,dusuk,yok,1_5_2_Milyon_TL_Arasi
Tokat,Niksar,Satilik,1_5_arasi,Kot_3,Yerden_Isitma,bilinmiyor,yok,var,var,yok,yok,yok,var,var,yok,yok,yok,yok,yok,yok,yok,yok,yok,yok,yok,yok,yok,yok,yok,yok,yok,yok,yok,yok,yok,yok,kademe_5,normal,bilinmiyor,normal,125_150_m2,4_oda,orta_4_7_kat,2_banyo,yok,yok,yok,dusuk,yok,yok,yok,4_5_Milyon_TL_Arasi
Kahramanmaras,Onikisubat,Satilik,6_10_arasi,1,Kombi,bilinmiyor,yok,var,var,var,yok,var,yok,yok,var,yok,var,var,yok,var,yok,var,yok,yok,yok,yok,yok,yok,var,yok,yok,var,yok,yok,yok,yok,kademe_5,normal,normal,bilinmiyor,150_200_m2,4_oda,alcak_1_3_kat,2_banyo,dusuk,dusuk,yok,orta,orta,yuksek,yok,3_4_Milyon_TL_Arasi
Nigde,Merkez,Satilik,0,Yuksek_Giris,Kombi,bilinmiyor,yok,var,yok,yok,yok,var,yok,var,var,yok,var,yok,yok,var,yok,yok,yok,yok,yok,yok,yok,yok,var,yok,yok,var,yok,yok,yok,yok,kademe_5,bilinmiyor,bilinmiyor,bilinmiyor,100_125_m2,3_oda,alcak_1_3_kat,1_banyo,yok,yok,yok,dusuk,dusuk,orta,yok,3_4_Milyon_TL_Arasi
Hatay,Arsuz,Satilik,6_10_arasi,En_Ust_Kat,Kombi_Elektrik,bilinmiyor,yok,var,yok,yok,yok,yok,yok,yok,var,yok,yok,yok,yok,yok,yok,yok,yok,yok,yok,yok,yok,yok,yok,yok,yok,yok,yok,yok,yok,yok,kademe_5,normal,iyi,kotu,125_150_m2,3_oda,orta_4_7_kat,2_banyo,yok,yok,yok,dusuk,dusuk,yok,yok,4_5_Milyon_TL_Arasi
Hatay,Belen,Satilik,0,2,bilinmiyor,bilinmiyor,yok,yok,yok,yok,yok,yok,yok,yok,yok,yok,yok,yok,yok,yok,yok,yok,yok,yok,yok,yok,yok,yok,yok,yok,yok,yok,yok,yok,yok,yok,kademe_5,bilinmiyor,bilinmiyor,bilinmiyor,100_125_m2,4_oda,orta_4_7_kat,1_banyo,yok,yok,yok,orta,yok,yok,yok,1_5_Milyon_TL_Alti
Bartin,Merkez,Satilik,26_30_arasi,1,Kombi,bilinmiyor,yok,var,var,var,yok,yok,yok,yok,yok,yok,yok,yok,yok,yok,yok,yok,yok,yok,yok,yok,yok,yok,yok,yok,yok,yok,yok,yok,yok,yok,kademe_5,kotu,bilinmiyor,bilinmiyor,125_150_m2,4_oda,orta_4_7_kat,1_banyo,yok,yok,yok,yok,yok,yok,yok,5_7_Bucuk_Milyon_TL_Arasi
Hatay,Dortyol,Satilik,6_10_arasi,1,Kombi,bilinmiyor,yok,yok,var,var,yok,var,var,yok,var,yok,var,var,yok,yok,yok,yok,yok,yok,yok,yok,yok,yok,yok,yok,yok,yok,yok,yok,var,yok,kademe_5,iyi,normal,bilinmiyor,300_m2_ve_ustu,5_oda,orta_4_7_kat,2_banyo,yok,dusuk,dusuk,dusuk,yuksek,yuksek,yok,4_5_Milyon_TL_Arasi
Hatay,Arsuz,Satilik,1_5_arasi,En_Ust_Kat,Klima,bilinmiyor,yok,var,var,var,yok,var,var,var,yok,yok,var,var,yok,yok,yok,yok,yok,yok,yok,yok,yok,yok,var,yok,yok,var,yok,yok,var,yok,kademe_5,iyi,iyi,bilinmiyor,150_200_m2,4_oda,orta_4_7_kat,2_banyo,yok,dusuk,yok,dusuk,dusuk,yuksek,yok,4_5_Milyon_TL_Arasi
Hatay,Antakya,Satilik,11_15_arasi,bilinmiyor,Soba,bilinmiyor,yok,yok,yok,yok,yok,yok,yok,yok,yok,yok,yok,yok,yok,yok,yok,yok,yok,yok,yok,yok,yok,yok,yok,yok,yok,yok,yok,yok,yok,yok,kademe_5,kotu,bilinmiyor,bilinmiyor,200_300_m2,5_oda,alcak_1_3_kat,2_banyo,yok,yok,yok,dusuk,yok,yok,yok,10_Milyon_TL_Ustu
Nigde,Merkez,Satilik,11_15_arasi,7,Merkezi,bilinmiyor,yok,var,var,var,yok,var,var,var,yok,yok,yok,yok,yok,yok,yok,yok,yok,yok,yok,yok,yok,yok,var,yok,yok,var,yok,yok,yok,yok,kademe_5,normal,iyi,bilinmiyor,200_300_m2,5_oda,yuksek_8_15_kat,1_banyo,dusuk,yok,yok,orta,orta,yuksek,yok,5_7_Bucuk_Milyon_TL_Arasi
Hatay,Iskenderun,Satilik,11_15_arasi,Ara_Kat,Kombi,bilinmiyor,yok,var,yok,yok,yok,yok,yok,yok,yok,yok,yok,yok,yok,yok,yok,yok,yok,yok,yok,yok,yok,yok,yok,yok,yok,yok,yok,yok,yok,yok,kademe_5,iyi,normal,bilinmiyor,150_200_m2,4_oda,orta_4_7_kat,2_banyo,yok,yok,yok,dusuk,yok,yok,yok,5_7_Bucuk_Milyon_TL_Arasi
Hatay,Payas,Satilik,1_5_arasi,3,Kombi,bilinmiyor,yok,var,yok,var,yok,var,yok,var,var,yok,var,var,yok,yok,yok,yok,yok,yok,yok,yok,yok,yok,yok,yok,yok,yok,yok,yok,yok,yok,kademe_5,kotu,normal,bilinmiyor,100_125_m2,3_oda,orta_4_7_kat,2_banyo,yok,yok,dusuk,dusuk,orta,dusuk,yok,3_4_Milyon_TL_Arasi
Kahramanmaras,Onikisubat,Satilik,11_15_arasi,3,Kombi,bilinmiyor,yok,var,yok,var,yok,yok,var,var,var,yok,yok,var,yok,yok,yok,yok,yok,yok,yok,yok,yok,yok,yok,yok,yok,yok,yok,yok,yok,yok,kademe_5,normal,kotu,normal,125_150_m2,4_oda,orta_4_7_kat,2_banyo,yok,yok,yok,dusuk,dusuk,yuksek,yok,3_4_Milyon_TL_Arasi
Osmaniye,Merkez,Satilik,6_10_arasi,En_Ust_Kat,Klima,bilinmiyor,yok,var,var,var,var,yok,yok,yok,yok,yok,var,yok,yok,yok,yok,yok,yok,yok,yok,yok,yok,yok,yok,yok,yok,yok,yok,yok,yok,yok,kademe_5,normal,normal,bilinmiyor,50_75_m2,3_oda,orta_4_7_kat,1_banyo,yok,yok,yok,dusuk,yok,orta,yok,1_5_Milyon_TL_Alti
Hatay,Iskenderun,Satilik,21_25_arasi,En_Ust_Kat,Klima,bilinmiyor,yok,var,yok,var,yok,var,var,var,var,yok,var,yok,yok,yok,yok,yok,yok,yok,yok,yok,yok,var,var,yok,yok,var,yok,yok,yok,yok,kademe_5,iyi,normal,normal,125_150_m2,3_oda,orta_4_7_kat,1_banyo,yok,dusuk,dusuk,orta,yuksek,yuksek,yok,2_3_Milyon_TL_Arasi
Hatay,Arsuz,Satilik,0,1,Klima,bilinmiyor,yok,var,yok,yok,yok,var,var,yok,var,yok,var,yok,yok,yok,yok,yok,yok,yok,yok,yok,yok,yok,var,yok,yok,yok,yok,yok,yok,yok,kademe_5,bilinmiyor,bilinmiyor,normal,75_100_m2,3_oda,alcak_1_3_kat,1_banyo,yok,yok,dusuk,dusuk,yuksek,orta,yok,3_4_Milyon_TL_Arasi
Kahramanmaras,Onikisubat,Satilik,11_15_arasi,1,Merkezi,bilinmiyor,yok,yok,var,var,yok,yok,var,yok,var,yok,var,var,yok,yok,yok,yok,yok,yok,yok,yok,yok,yok,yok,yok,yok,yok,yok,yok,yok,yok,kademe_5,normal,normal,normal,150_200_m2,5_oda,yuksek_8_15_kat,2_banyo,dusuk,dusuk,yok,dusuk,yok,orta,yok,3_4_Milyon_TL_Arasi
Hatay,Payas,Satilik,6_10_arasi,2,Kombi,bilinmiyor,yok,var,var,var,yok,var,var,yok,var,yok,var,yok,yok,yok,yok,yok,yok,yok,yok,yok,yok,yok,yok,yok,yok,var,yok,yok,yok,yok,kademe_5,normal,bilinmiyor,kotu,150_200_m2,4_oda,orta_4_7_kat,2_banyo,yok,dusuk,yok,orta,yuksek,yuksek,yok,3_4_Milyon_TL_Arasi
Hatay,Dortyol,Satilik,31_ve_uzeri,4,isitma_yok,bilinmiyor,yok,var,yok,yok,yok,yok,yok,yok,yok,yok,yok,yok,yok,yok,yok,yok,yok,yok,yok,yok,yok,yok,yok,yok,yok,yok,yok,yok,yok,yok,kademe_5,normal,normal,bilinmiyor,125_150_m2,3_oda,orta_4_7_kat,1_banyo,yok,yok,yok,dusuk,yok,yok,yok,2_3_Milyon_TL_Arasi
Hatay,Belen,Satilik,11_15_arasi,Bahce,Kombi,bilinmiyor,yok,yok,yok,yok,yok,var,var,var,var,yok,yok,yok,yok,yok,yok,yok,yok,yok,yok,yok,yok,yok,yok,yok,yok,yok,yok,yok,yok,yok,kademe_5,bilinmiyor,bilinmiyor,kotu,300_m2_ve_ustu,6_oda,orta_4_7_kat,3_banyo_ve_ustu,yok,yok,yok,dusuk,yok,yok,yok,10_Milyon_TL_Ustu
Tokat,Niksar,Satilik,11_15_arasi,Kot_1,Kombi_Dogalgaz,bilinmiyor,yok,var,var,var,yok,yok,yok,var,yok,yok,var,yok,yok,var,yok,yok,yok,var,yok,yok,yok,yok,yok,yok,yok,var,yok,yok,yok,yok,kademe_5,normal,kotu,bilinmiyor,75_100_m2,2_oda,orta_4_7_kat,1_banyo,yok,yok,yok,yok,yok,yuksek,yok,2_3_Milyon_TL_Arasi
Tokat,Turhal,Satilik,26_30_arasi,2,Kombi,bilinmiyor,yok,var,yok,var,yok,yok,yok,yok,yok,yok,yok,yok,yok,yok,yok,yok,yok,yok,yok,yok,yok,yok,yok,yok,yok,yok,yok,yok,yok,yok,kademe_5,kotu,normal,bilinmiyor,125_150_m2,4_oda,orta_4_7_kat,1_banyo,yok,yok,yok,dusuk,yok,yok,yok,2_3_Milyon_TL_Arasi
Tokat,Niksar,Satilik,1_5_arasi,2,Kombi_Dogalgaz,bilinmiyor,yok,yok,yok,yok,yok,yok,yok,yok,yok,yok,yok,yok,yok,yok,yok,yok,yok,yok,yok,yok,yok,yok,yok,yok,yok,yok,yok,yok,yok,yok,kademe_5,iyi,iyi,bilinmiyor,100_125_m2,3_oda,orta_4_7_kat,1_banyo,yok,yok,yok,dusuk,orta,yok,yok,4_5_Milyon_TL_Arasi
Osmaniye,Merkez,Satilik,21_25_arasi,7,Kombi_Dogalgaz,bilinmiyor,yok,var,var,var,yok,var,var,var,yok,yok,var,yok,yok,yok,yok,yok,yok,yok,yok,yok,yok,yok,var,yok,yok,var,yok,yok,yok,yok,kademe_5,normal,normal,bilinmiyor,150_200_m2,4_oda,yuksek_8_15_kat,1_banyo,yok,yok,yok,dusuk,orta,orta,yok,1_5_2_Milyon_TL_Arasi
Hatay,Dortyol,Satilik,0,2,Kombi,bilinmiyor,yok,var,var,var,yok,var,var,yok,var,yok,var,var,yok,yok,yok,yok,yok,yok,yok,yok,yok,yok,var,yok,yok,var,yok,yok,yok,yok,kademe_5,bilinmiyor,bilinmiyor,bilinmiyor,150_200_m2,4_oda,orta_4_7_kat,2_banyo,dusuk,dusuk,dusuk,orta,yuksek,yuksek,yok,4_5_Milyon_TL_Arasi
Kahramanmaras,Onikisubat,Satilik,0,4,Merkezi,bilinmiyor,yok,var,var,var,yok,var,var,var,var,yok,var,yok,yok,var,yok,yok,yok,yok,yok,yok,yok,yok,var,yok,yok,var,var,yok,yok,yok,kademe_5,normal,normal,kotu,50_75_m2,2_oda,orta_4_7_kat,1_banyo,orta,dusuk,orta,orta,orta,yuksek,yok,2_3_Milyon_TL_Arasi
Hatay,Antakya,Satilik,11_15_arasi,2,Klima,bilinmiyor,yok,var,yok,var,var,yok,yok,yok,yok,yok,yok,yok,yok,yok,yok,yok,yok,yok,yok,yok,yok,yok,yok,yok,yok,yok,yok,yok,yok,yok,kademe_5,iyi,normal,kotu,50_75_m2,3_oda,orta_4_7_kat,1_banyo,yok,yok,yok,dusuk,yok,dusuk,yok,1_5_Milyon_TL_Alti
Hatay,Iskenderun,Satilik,26_30_arasi,2,Kombi,bilinmiyor,yok,var,var,yok,yok,yok,yok,yok,yok,yok,yok,yok,yok,yok,yok,yok,yok,yok,yok,yok,yok,yok,yok,yok,yok,yok,yok,yok,yok,yok,kademe_5,bilinmiyor,normal,bilinmiyor,150_200_m2,4_oda,orta_4_7_kat,1_banyo,yok,yok,yok,dusuk,yok,dusuk,yok,4_5_Milyon_TL_Arasi
Hatay,Iskenderun,Satilik,16_20_arasi,2,Klima,bilinmiyor,yok,var,var,var,yok,yok,yok,yok,yok,yok,var,yok,yok,var,yok,yok,yok,yok,var,yok,yok,yok,var,yok,yok,yok,yok,yok,yok,yok,kademe_5,kotu,kotu,bilinmiyor,150_200_m2,4_oda,orta_4_7_kat,2_banyo,dusuk,dusuk,yok,orta,orta,yuksek,yok,5_7_Bucuk_Milyon_TL_Arasi
Hatay,Dortyol,Satilik,0,1,Kombi,bilinmiyor,yok,var,var,var,var,var,var,var,var,yok,var,yok,yok,yok,yok,yok,yok,yok,yok,yok,yok,yok,var,yok,yok,var,yok,yok,yok,yok,kademe_5,normal,bilinmiyor,bilinmiyor,100_125_m2,3_oda,orta_4_7_kat,1_banyo,dusuk,dusuk,yok,dusuk,yok,yuksek,yok,3_4_Milyon_TL_Arasi
Tokat,Merkez,Satilik,6_10_arasi,Bahce,Kat_Kaloriferi,bilinmiyor,yok,var,yok,var,yok,var,var,yok,var,yok,yok,yok,yok,yok,yok,yok,yok,yok,yok,yok,yok,yok,var,yok,yok,yok,var,yok,yok,yok,kademe_5,normal,bilinmiyor,bilinmiyor,100_125_m2,3_oda,bilinmiyor,2_banyo,yok,yok,yok,dusuk,yok,yok,yok,10_Milyon_TL_Ustu
Hatay,Iskenderun,Satilik,6_10_arasi,Ara_Kat,Kombi_Dogalgaz,bilinmiyor,yok,var,var,var,yok,yok,yok,yok,yok,yok,var,yok,yok,var,yok,yok,yok,yok,yok,yok,yok,var,var,yok,yok,yok,yok,yok,yok,yok,kademe_5,iyi,iyi,bilinmiyor,150_200_m2,4_oda,yuksek_8_15_kat,1_banyo,orta,dusuk,yok,dusuk,orta,yuksek,yok,10_Milyon_TL_Ustu
Hatay,Iskenderun,Satilik,26_30_arasi,1,Klima,bilinmiyor,yok,var,yok,yok,var,yok,yok,yok,yok,yok,yok,yok,yok,yok,yok,yok,yok,yok,yok,yok,yok,yok,yok,yok,yok,yok,yok,yok,yok,yok,kademe_5,normal,normal,kotu,125_150_m2,4_oda,orta_4_7_kat,1_banyo,yok,yok,yok,yok,yok,dusuk,yok,2_3_Milyon_TL_Arasi
Yozgat,Merkez,Satilik,11_15_arasi,Teras_Kati,Kombi_Dogalgaz,bilinmiyor,yok,var,var,var,yok,yok,var,var,yok,yok,var,var,yok,yok,yok,yok,yok,yok,yok,yok,yok,yok,yok,yok,yok,var,yok,yok,var,yok,kademe_5,normal,normal,kotu,200_300_m2,7_oda_ve_ustu,orta_4_7_kat,2_banyo,yok,yok,yok,dusuk,yok,yuksek,yok,5_7_Bucuk_Milyon_TL_Arasi
Hatay,Arsuz,Satilik,1_5_arasi,Cati,Kombi_Dogalgaz,bilinmiyor,yok,var,var,var,yok,yok,yok,var,var,yok,var,var,yok,yok,yok,yok,yok,yok,yok,yok,yok,yok,yok,yok,yok,yok,yok,yok,var,yok,kademe_5,iyi,iyi,kotu,300_m2_ve_ustu,7_oda_ve_ustu,orta_4_7_kat,3_banyo_ve_ustu,dusuk,dusuk,yok,dusuk,yok,yuksek,yok,10_Milyon_TL_Ustu
Nigde,Bor,Satilik,1_5_arasi,2,Merkezi,bilinmiyor,yok,var,var,var,yok,yok,var,var,yok,yok,var,var,yok,var,yok,yok,yok,yok,yok,yok,yok,yok,var,yok,yok,yok,yok,yok,yok,yok,kademe_5,normal,normal,normal,150_200_m2,4_oda,orta_4_7_kat,1_banyo,dusuk,yok,yok,orta,orta,orta,yok,4_5_Milyon_TL_Arasi
Tokat,Merkez,Satilik,21_25_arasi,4,Kombi_Dogalgaz,bilinmiyor,yok,var,yok,yok,yok,yok,yok,var,var,yok,var,yok,yok,var,yok,yok,yok,yok,yok,yok,yok,yok,yok,yok,yok,var,yok,yok,yok,yok,kademe_5,bilinmiyor,bilinmiyor,bilinmiyor,100_125_m2,3_oda,orta_4_7_kat,1_banyo,yok,yok,yok,dusuk,dusuk,yuksek,yok,3_4_Milyon_TL_Arasi
Kahramanmaras,Dulkadiroglu,Satilik,1_5_arasi,Bahce,Kombi,bilinmiyor,yok,var,yok,var,yok,var,yok,yok,var,yok,yok,yok,yok,yok,yok,yok,yok,yok,yok,yok,yok,yok,yok,yok,yok,yok,yok,yok,yok,yok,kademe_5,iyi,iyi,bilinmiyor,200_300_m2,4_oda,bilinmiyor,2_banyo,yok,yok,yok,dusuk,dusuk,dusuk,yok,4_5_Milyon_TL_Arasi
Hatay,Antakya,Satilik,1_5_arasi,1,Kombi_Dogalgaz,bilinmiyor,yok,var,var,var,yok,var,var,yok,var,yok,yok,yok,yok,var,yok,yok,yok,yok,yok,yok,yok,yok,var,yok,yok,var,yok,yok,yok,yok,kademe_5,iyi,bilinmiyor,bilinmiyor,75_100_m2,3_oda,orta_4_7_kat,1_banyo,dusuk,dusuk,dusuk,orta,orta,yuksek,yok,1_5_2_Milyon_TL_Arasi
Tokat,Merkez,Satilik,0,7,Kombi_Dogalgaz,bilinmiyor,yok,yok,var,yok,yok,var,var,var,var,yok,yok,yok,yok,yok,yok,yok,yok,yok,yok,yok,yok,yok,yok,yok,yok,yok,yok,yok,yok,yok,kademe_5,iyi,iyi,bilinmiyor,0_50_m2,2_oda,yuksek_8_15_kat,1_banyo,yok,yok,yok,dusuk,yok,yok,yok,4_5_Milyon_TL_Arasi
Hatay,Iskenderun,Satilik,26_30_arasi,3,Kombi,bilinmiyor,yok,var,yok,yok,yok,yok,yok,yok,yok,yok,var,yok,yok,yok,yok,yok,yok,yok,yok,yok,yok,yok,yok,yok,yok,var,yok,yok,yok,yok,kademe_5,normal,normal,normal,100_125_m2,4_oda,orta_4_7_kat,1_banyo,yok,yok,yok,dusuk,orta,dusuk,yok,2_3_Milyon_TL_Arasi
Tokat,Merkez,Satilik,0,Giris,Kombi_Dogalgaz,bilinmiyor,yok,var,var,var,yok,var,var,var,yok,yok,var,yok,yok,var,yok,yok,yok,yok,yok,yok,yok,yok,yok,yok,yok,var,yok,yok,yok,yok,kademe_5,iyi,normal,iyi,0_50_m2,2_oda,orta_4_7_kat,1_banyo,yok,yok,yok,dusuk,yok,orta,yok,2_3_Milyon_TL_Arasi
Bartin,Merkez,Satilik,0,3,Dogalgaz_Sobasi,bilinmiyor,yok,var,var,var,yok,var,yok,yok,yok,yok,var,yok,yok,var,yok,yok,yok,yok,yok,yok,yok,yok,yok,yok,yok,yok,yok,yok,yok,yok,kademe_5,iyi,normal,iyi,50_75_m2,2_oda,orta_4_7_kat,1_banyo,yok,yok,yok,yok,yok,dusuk,yok,3_4_Milyon_TL_Arasi
Tokat,Niksar,Satilik,31_ve_uzeri,bilinmiyor,Soba,bilinmiyor,yok,yok,yok,yok,yok,yok,yok,yok,yok,yok,yok,yok,yok,yok,yok,yok,yok,yok,yok,yok,yok,yok,yok,yok,yok,yok,yok,yok,yok,yok,kademe_5,kotu,bilinmiyor,bilinmiyor,100_125_m2,7_oda_ve_ustu,alcak_1_3_kat,2_banyo,yok,yok,yok,dusuk,yok,yok,yok,4_5_Milyon_TL_Arasi
Erzurum,Yakutiye,Satilik,26_30_arasi,Giris,Kombi,bilinmiyor,yok,yok,yok,var,yok,yok,yok,yok,yok,yok,yok,yok,yok,yok,yok,yok,yok,yok,yok,yok,yok,yok,yok,yok,yok,yok,yok,yok,yok,yok,kademe_5,bilinmiyor,bilinmiyor,bilinmiyor,300_m2_ve_ustu,3_oda,alcak_1_3_kat,1_banyo,yok,yok,yok,dusuk,yok,yok,yok,10_Milyon_TL_Ustu
Hatay,Defne,Satilik,6_10_arasi,2,Kombi_Dogalgaz,bilinmiyor,yok,var,var,var,yok,yok,yok,var,yok,yok,var,yok,yok,var,yok,yok,yok,var,yok,yok,yok,var,var,yok,yok,var,yok,yok,yok,yok,kademe_5,normal,bilinmiyor,iyi,150_200_m2,4_oda,orta_4_7_kat,1_banyo,dusuk,dusuk,yok,orta,orta,yuksek,yok,2_3_Milyon_TL_Arasi
Yozgat,Merkez,Satilik,0,2,Kombi_Dogalgaz,bilinmiyor,yok,var,var,var,yok,yok,yok,yok,yok,yok,var,yok,yok,var,yok,yok,yok,yok,yok,yok,yok,yok,yok,yok,yok,var,yok,yok,yok,yok,kademe_5,iyi,normal,bilinmiyor,125_150_m2,4_oda,orta_4_7_kat,1_banyo,yok,yok,yok,dusuk,yok,orta,yok,2_3_Milyon_TL_Arasi
Hatay,Iskenderun,Satilik,6_10_arasi,Ara_Kat,Klima,bilinmiyor,yok,yok,yok,yok,var,var,yok,yok,yok,yok,yok,yok,yok,yok,yok,yok,yok,yok,yok,yok,yok,yok,yok,yok,yok,yok,yok,yok,yok,yok,kademe_5,normal,normal,normal,0_50_m2,2_oda,orta_4_7_kat,1_banyo,yok,yok,yok,dusuk,yok,dusuk,yok,2_3_Milyon_TL_Arasi
Yozgat,Merkez,Satilik,1_5_arasi,2,Kombi_Dogalgaz,bilinmiyor,yok,var,var,var,var,yok,yok,yok,yok,yok,var,yok,yok,var,yok,yok,yok,yok,yok,yok,yok,yok,yok,yok,yok,var,yok,yok,yok,yok,kademe_5,kotu,iyi,bilinmiyor,50_75_m2,3_oda,orta_4_7_kat,1_banyo,yok,yok,dusuk,dusuk,orta,yuksek,yok,2_3_Milyon_TL_Arasi
Kahramanmaras,Onikisubat,Satilik,6_10_arasi,1,Kombi_Dogalgaz,bilinmiyor,yok,yok,var,yok,yok,yok,var,var,yok,yok,var,yok,yok,yok,yok,yok,yok,yok,yok,yok,yok,yok,yok,yok,yok,var,yok,yok,yok,yok,kademe_5,kotu,kotu,kotu,0_50_m2,2_oda,orta_4_7_kat,1_banyo,dusuk,yok,dusuk,dusuk,yok,yuksek,yok,1_5_2_Milyon_TL_Arasi
Kahramanmaras,Onikisubat,Satilik,11_15_arasi,3,Kombi,bilinmiyor,yok,var,var,var,yok,var,var,var,var,yok,yok,var,yok,yok,yok,yok,yok,yok,yok,yok,yok,yok,yok,yok,yok,var,yok,yok,yok,yok,kademe_5,kotu,kotu,kotu,150_200_m2,4_oda,orta_4_7_kat,2_banyo,yok,yok,yok,dusuk,orta,orta,yok,2_3_Milyon_TL_Arasi
Hatay,Antakya,Satilik,11_15_arasi,1,Klima,bilinmiyor,yok,var,yok,var,var,var,var,var,yok,yok,yok,yok,yok,yok,yok,yok,yok,yok,yok,yok,yok,yok,yok,yok,yok,yok,yok,yok,yok,yok,kademe_5,kotu,kotu,normal,50_75_m2,3_oda,orta_4_7_kat,1_banyo,yok,yok,yok,dusuk,yok,dusuk,yok,1_5_Milyon_TL_Alti
Hatay,Iskenderun,Satilik,1_5_arasi,Ara_Kat,isitma_yok_dogalgaz,bilinmiyor,yok,yok,var,yok,yok,var,yok,var,yok,yok,var,var,yok,yok,yok,yok,yok,yok,yok,yok,yok,var,yok,yok,yok,var,var,yok,yok,yok,kademe_5,iyi,bilinmiyor,kotu,300_m2_ve_ustu,6_oda,orta_4_7_kat,2_banyo,dusuk,dusuk,yok,dusuk,dusuk,orta,yok,10_Milyon_TL_Ustu
Kahramanmaras,Onikisubat,Satilik,6_10_arasi,8,Kombi,bilinmiyor,yok,yok,var,yok,yok,yok,yok,yok,yok,yok,yok,yok,yok,yok,yok,yok,yok,yok,yok,yok,yok,yok,yok,yok,yok,yok,yok,yok,yok,yok,kademe_5,kotu,bilinmiyor,bilinmiyor,125_150_m2,4_oda,yuksek_8_15_kat,2_banyo,yok,yok,yok,dusuk,yok,yok,yok,2_3_Milyon_TL_Arasi
Hatay,Arsuz,Satilik,1_5_arasi,1,Gunes_Enerjisi,bilinmiyor,yok,var,yok,yok,yok,var,var,var,var,yok,yok,yok,yok,yok,yok,yok,yok,yok,yok,yok,yok,yok,yok,yok,yok,yok,yok,yok,yok,yok,kademe_5,iyi,bilinmiyor,bilinmiyor,75_100_m2,3_oda,orta_4_7_kat,1_banyo,yok,yok,dusuk,dusuk,yok,dusuk,yok,3_4_Milyon_TL_Arasi
Hatay,Antakya,Satilik,0,3,Kombi_Dogalgaz,bilinmiyor,yok,yok,yok,yok,yok,yok,yok,yok,yok,yok,yok,yok,yok,yok,yok,yok,yok,yok,yok,yok,yok,yok,yok,yok,yok,yok,yok,yok,yok,yok,kademe_5,iyi,normal,normal,75_100_m2,3_oda,orta_4_7_kat,1_banyo,yok,yok,yok,dusuk,yok,yok,yok,2_3_Milyon_TL_Arasi
Yozgat,Merkez,Satilik,21_25_arasi,5,Kombi_Dogalgaz,bilinmiyor,yok,var,yok,var,yok,yok,yok,yok,yok,yok,var,yok,yok,yok,yok,yok,yok,yok,yok,yok,yok,yok,yok,yok,yok,var,yok,yok,yok,yok,kademe_5,normal,bilinmiyor,bilinmiyor,125_150_m2,4_oda,orta_4_7_kat,1_banyo,yok,yok,dusuk,dusuk,dusuk,yuksek,yok,1_5_2_Milyon_TL_Arasi
Hatay,Iskenderun,Satilik,6_10_arasi,2,Klima,bilinmiyor,yok,var,var,yok,yok,var,var,yok,var,yok,var,yok,yok,yok,yok,yok,yok,yok,yok,yok,yok,var,yok,yok,yok,yok,yok,yok,yok,yok,kademe_5,normal,normal,iyi,125_150_m2,4_oda,orta_4_7_kat,2_banyo,yok,yok,yok,dusuk,yok,orta,yok,2_3_Milyon_TL_Arasi
Nigde,Merkez,Satilik,21_25_arasi,3,Soba,bilinmiyor,yok,var,yok,var,yok,var,var,var,var,yok,yok,yok,yok,yok,yok,yok,yok,yok,yok,yok,yok,yok,yok,yok,yok,var,yok,yok,yok,yok,kademe_5,kotu,bilinmiyor,bilinmiyor,100_125_m2,3_oda,orta_4_7_kat,1_banyo,yok,yok,yok,dusuk,dusuk,yok,yok,2_3_Milyon_TL_Arasi
Nigde,Merkez,Satilik,11_15_arasi,1,Kombi,bilinmiyor,yok,var,var,var,yok,yok,yok,yok,yok,yok,yok,yok,yok,yok,yok,yok,yok,yok,yok,yok,yok,yok,yok,yok,yok,yok,yok,yok,yok,yok,kademe_5,iyi,normal,bilinmiyor,150_200_m2,4_oda,orta_4_7_kat,2_banyo,yok,yok,yok,dusuk,yok,yok,yok,2_3_Milyon_TL_Arasi
Hatay,Antakya,Satilik,1_5_arasi,1,Kombi,bilinmiyor,yok,var,yok,var,yok,yok,yok,yok,yok,yok,yok,yok,yok,yok,yok,yok,yok,yok,yok,yok,yok,yok,yok,yok,yok,yok,yok,yok,yok,yok,kademe_5,normal,iyi,kotu,100_125_m2,3_oda,orta_4_7_kat,1_banyo,yok,yok,yok,dusuk,yok,yok,yok,2_3_Milyon_TL_Arasi
Tokat,Merkez,Satilik,0,2,Kombi_Dogalgaz,bilinmiyor,yok,var,var,var,yok,yok,yok,yok,yok,yok,yok,yok,yok,yok,yok,yok,yok,yok,yok,yok,yok,yok,yok,yok,yok,yok,yok,yok,yok,yok,kademe_5,iyi,iyi,normal,150_200_m2,4_oda,yuksek_8_15_kat,2_banyo,yok,yok,yok,dusuk,yok,yok,yok,7_Bucuk_10_Milyon_TL_Arasi
Nigde,Merkez,Satilik,1_5_arasi,4,Kombi_Dogalgaz,bilinmiyor,yok,var,var,var,yok,yok,var,yok,yok,yok,var,yok,yok,var,yok,yok,yok,yok,yok,yok,yok,yok,yok,yok,yok,var,yok,yok,yok,yok,kademe_5,normal,bilinmiyor,bilinmiyor,50_75_m2,3_oda,orta_4_7_kat,1_banyo,dusuk,dusuk,yok,orta,dusuk,dusuk,yok,2_3_Milyon_TL_Arasi
Hatay,Yayladagi,Satilik,1_5_arasi,bilinmiyor,Klima,bilinmiyor,yok,yok,yok,var,var,var,var,var,var,yok,yok,yok,yok,yok,yok,yok,yok,yok,yok,yok,yok,yok,yok,yok,yok,yok,yok,yok,yok,yok,kademe_5,bilinmiyor,bilinmiyor,bilinmiyor,300_m2_ve_ustu,4_oda,alcak_1_3_kat,1_banyo,yok,yok,yok,dusuk,yok,dusuk,yok,5_7_Bucuk_Milyon_TL_Arasi
Hatay,Iskenderun,Satilik,16_20_arasi,4,Klima,bilinmiyor,yok,var,yok,var,yok,yok,yok,yok,yok,yok,yok,yok,yok,yok,yok,yok,yok,yok,yok,yok,yok,yok,yok,yok,yok,yok,yok,yok,yok,yok,kademe_5,kotu,iyi,iyi,200_300_m2,5_oda,orta_4_7_kat,2_banyo,yok,yok,yok,dusuk,yok,dusuk,yok,2_3_Milyon_TL_Arasi
Tokat,Merkez,Satilik,1_5_arasi,Giris,Kombi_Dogalgaz,bilinmiyor,yok,yok,yok,yok,yok,yok,yok,yok,yok,yok,yok,yok,yok,yok,yok,yok,yok,yok,yok,yok,yok,yok,yok,yok,yok,yok,yok,yok,yok,yok,kademe_5,iyi,normal,iyi,75_100_m2,3_oda,orta_4_7_kat,1_banyo,yok,yok,yok,dusuk,yok,yok,yok,3_4_Milyon_TL_Arasi
Tokat,Merkez,Satilik,6_10_arasi,3,Kombi,bilinmiyor,yok,var,var,var,yok,var,var,yok,yok,yok,var,yok,yok,var,yok,yok,yok,yok,yok,yok,yok,yok,yok,yok,yok,var,yok,yok,yok,yok,kademe_5,normal,normal,bilinmiyor,100_125_m2,4_oda,orta_4_7_kat,1_banyo,dusuk,yok,dusuk,dusuk,orta,yuksek,yok,5_7_Bucuk_Milyon_TL_Arasi
Hatay,Iskenderun,Satilik,11_15_arasi,En_Ust_Kat,Kombi_Dogalgaz,bilinmiyor,yok,var,var,var,yok,var,var,yok,var,yok,yok,yok,yok,yok,yok,yok,yok,yok,yok,yok,yok,yok,yok,yok,yok,yok,yok,yok,yok,yok,kademe_5,iyi,normal,normal,125_150_m2,4_oda,orta_4_7_kat,1_banyo,yok,yok,yok,dusuk,yok,yok,yok,3_4_Milyon_TL_Arasi
Bartin,Amasra,Satilik,0,1,Merkezi,bilinmiyor,yok,var,var,var,yok,var,var,var,yok,yok,var,yok,yok,yok,yok,yok,yok,yok,var,yok,yok,yok,var,yok,yok,var,yok,yok,yok,yok,kademe_5,bilinmiyor,iyi,bilinmiyor,50_75_m2,3_oda,orta_4_7_kat,1_banyo,dusuk,dusuk,dusuk,dusuk,yuksek,yuksek,yok,4_5_Milyon_TL_Arasi
Erzurum,Palandoken,Satilik,11_15_arasi,Yuksek_Giris,Merkezi,bilinmiyor,yok,var,var,var,yok,var,yok,var,yok,yok,yok,yok,yok,yok,yok,yok,yok,yok,yok,yok,yok,yok,var,yok,yok,var,yok,yok,yok,yok,kademe_5,normal,iyi,bilinmiyor,150_200_m2,3_oda,orta_4_7_kat,1_banyo,yok,yok,yok,orta,orta,orta,yok,2_3_Milyon_TL_Arasi
Hatay,Iskenderun,Satilik,26_30_arasi,En_Ust_Kat,Kombi_Dogalgaz,bilinmiyor,yok,var,var,yok,yok,var,var,yok,yok,yok,yok,yok,yok,yok,yok,yok,yok,yok,yok,yok,yok,yok,yok,yok,yok,yok,yok,yok,yok,yok,kademe_5,bilinmiyor,bilinmiyor,kotu,125_150_m2,4_oda,orta_4_7_kat,1_banyo,yok,yok,yok,dusuk,yok,yok,yok,2_3_Milyon_TL_Arasi
Kahramanmaras,Afsin,Satilik,1_5_arasi,1,bilinmiyor,bilinmiyor,yok,var,var,var,yok,yok,yok,yok,yok,yok,yok,yok,yok,yok,yok,yok,yok,yok,yok,yok,yok,yok,yok,yok,yok,yok,yok,yok,yok,yok,kademe_5,iyi,bilinmiyor,bilinmiyor,150_200_m2,5_oda,alcak_1_3_kat,1_banyo,yok,yok,yok,dusuk,yok,yok,yok,3_4_Milyon_TL_Arasi
Yozgat,Bogazliyan,Satilik,6_10_arasi,Bahce,Soba,bilinmiyor,yok,var,yok,yok,yok,yok,yok,yok,yok,yok,yok,yok,yok,yok,yok,yok,yok,yok,yok,yok,yok,yok,yok,yok,yok,yok,yok,yok,yok,yok,kademe_5,kotu,kotu,bilinmiyor,300_m2_ve_ustu,5_oda,bilinmiyor,1_banyo,yok,yok,yok,dusuk,yok,yok,yok,3_4_Milyon_TL_Arasi
Hatay,Iskenderun,Satilik,1_5_arasi,5,Kombi,bilinmiyor,yok,var,var,yok,yok,yok,yok,yok,yok,yok,var,yok,yok,var,yok,yok,yok,yok,var,yok,yok,yok,yok,yok,yok,yok,yok,yok,yok,yok,kademe_5,iyi,iyi,kotu,150_200_m2,3_oda,yuksek_8_15_kat,1_banyo,dusuk,dusuk,dusuk,dusuk,orta,yuksek,yok,5_7_Bucuk_Milyon_TL_Arasi
Hatay,Iskenderun,Satilik,31_ve_uzeri,2,Klima,bilinmiyor,yok,var,var,yok,var,yok,yok,var,yok,yok,yok,yok,yok,yok,yok,yok,yok,yok,yok,yok,yok,yok,yok,yok,yok,yok,yok,yok,yok,yok,kademe_5,bilinmiyor,normal,normal,125_150_m2,3_oda,orta_4_7_kat,1_banyo,yok,yok,yok,dusuk,yok,orta,yok,2_3_Milyon_TL_Arasi
Hatay,Iskenderun,Satilik,1_5_arasi,4,Kombi,bilinmiyor,yok,var,var,var,var,var,var,var,yok,yok,yok,yok,yok,yok,yok,yok,yok,yok,yok,yok,yok,yok,yok,yok,yok,yok,yok,yok,yok,yok,kademe_5,normal,iyi,kotu,150_200_m2,6_oda,orta_4_7_kat,3_banyo_ve_ustu,yok,yok,yok,dusuk,yok,yok,yok,5_7_Bucuk_Milyon_TL_Arasi
Hatay,Iskenderun,Satilik,11_15_arasi,3,Klima,bilinmiyor,yok,var,var,var,yok,yok,yok,yok,yok,yok,var,yok,yok,yok,yok,yok,yok,yok,yok,yok,yok,yok,yok,yok,yok,yok,yok,yok,yok,yok,kademe_5,kotu,bilinmiyor,kotu,150_200_m2,4_oda,orta_4_7_kat,2_banyo,yok,yok,yok,dusuk,yok,dusuk,yok,4_5_Milyon_TL_Arasi
Tokat,Erbaa,Satilik,11_15_arasi,4,Kombi,bilinmiyor,yok,var,var,var,yok,yok,var,var,yok,yok,yok,yok,yok,yok,yok,yok,yok,yok,yok,yok,yok,yok,yok,yok,yok,yok,yok,yok,yok,yok,kademe_5,bilinmiyor,bilinmiyor,normal,150_200_m2,5_oda,orta_4_7_kat,2_banyo,yok,yok,yok,dusuk,yok,yok,yok,4_5_Milyon_TL_Arasi
Hatay,Yayladagi,Satilik,1_5_arasi,Bahce,Klima,bilinmiyor,yok,var,yok,var,yok,var,var,var,var,yok,var,var,yok,var,var,yok,yok,yok,yok,yok,yok,var,var,yok,yok,var,yok,var,yok,yok,kademe_5,iyi,kotu,bilinmiyor,125_150_m2,4_oda,bilinmiyor,3_banyo_ve_ustu,dusuk,dusuk,dusuk,orta,dusuk,yuksek,yok,5_7_Bucuk_Milyon_TL_Arasi
Bartin,Merkez,Satilik,6_10_arasi,4,Kombi,bilinmiyor,yok,var,var,var,yok,yok,yok,yok,yok,yok,yok,yok,yok,yok,yok,yok,yok,yok,yok,yok,yok,yok,yok,yok,yok,yok,yok,yok,yok,yok,kademe_5,normal,normal,normal,75_100_m2,3_oda,orta_4_7_kat,1_banyo,yok,yok,yok,dusuk,yok,yok,yok,4_5_Milyon_TL_Arasi
Tokat,Zile,Satilik,31_ve_uzeri,Bahce,Soba,bilinmiyor,yok,yok,yok,yok,yok,yok,yok,yok,yok,yok,yok,yok,yok,yok,yok,yok,yok,yok,yok,yok,yok,yok,yok,yok,yok,yok,yok,yok,yok,yok,kademe_5,bilinmiyor,bilinmiyor,bilinmiyor,200_300_m2,6_oda,bilinmiyor,1_banyo,yok,yok,yok,dusuk,yok,yok,yok,2_3_Milyon_TL_Arasi
Hatay,Iskenderun,Satilik,1_5_arasi,1,Kombi_Dogalgaz,bilinmiyor,yok,var,yok,yok,yok,yok,yok,yok,yok,yok,yok,yok,yok,yok,yok,yok,yok,yok,yok,yok,yok,yok,yok,yok,yok,yok,yok,yok,yok,yok,kademe_5,bilinmiyor,normal,bilinmiyor,200_300_m2,5_oda,orta_4_7_kat,2_banyo,yok,yok,yok,dusuk,yok,yok,yok,7_Bucuk_10_Milyon_TL_Arasi
Nigde,Merkez,Satilik,1_5_arasi,3,Merkezi,bilinmiyor,yok,var,var,var,yok,var,yok,var,yok,yok,var,var,yok,var,yok,yok,yok,yok,yok,yok,yok,yok,yok,yok,yok,yok,yok,yok,yok,yok,kademe_5,bilinmiyor,iyi,bilinmiyor,200_300_m2,5_oda,yuksek_8_15_kat,2_banyo,orta,dusuk,yok,orta,dusuk,yuksek,yok,7_Bucuk_10_Milyon_TL_Arasi
Tokat,Merkez,Satilik,1_5_arasi,Ara_Kat,Kombi_Dogalgaz,bilinmiyor,yok,yok,var,yok,yok,var,var,var,var,yok,var,yok,yok,var,yok,yok,yok,yok,yok,yok,yok,yok,yok,yok,yok,var,yok,yok,yok,yok,kademe_5,kotu,normal,bilinmiyor,50_75_m2,2_oda,orta_4_7_kat,1_banyo,yok,yok,yok,dusuk,dusuk,yuksek,yok,2_3_Milyon_TL_Arasi
Tokat,Merkez,Satilik,1_5_arasi,10,Merkezi,bilinmiyor,yok,var,var,var,yok,yok,var,var,yok,yok,yok,yok,yok,yok,yok,yok,yok,yok,yok,yok,yok,yok,yok,yok,yok,var,yok,yok,yok,yok,kademe_5,bilinmiyor,bilinmiyor,bilinmiyor,200_300_m2,5_oda,yuksek_8_15_kat,2_banyo,yok,yok,yok,dusuk,yok,dusuk,yok,10_Milyon_TL_Ustu
Tokat,Merkez,Satilik,26_30_arasi,Giris,Kombi_Dogalgaz,bilinmiyor,yok,var,var,var,yok,yok,yok,var,var,yok,var,yok,yok,yok,yok,yok,yok,yok,yok,yok,yok,yok,yok,yok,yok,var,yok,yok,yok,yok,kademe_5,bilinmiyor,bilinmiyor,bilinmiyor,100_125_m2,3_oda,orta_4_7_kat,1_banyo,yok,yok,yok,dusuk,yok,orta,yok,3_4_Milyon_TL_Arasi
Hatay,Iskenderun,Satilik,0,2,isitma_yok,bilinmiyor,yok,var,var,var,yok,var,var,var,yok,yok,var,yok,yok,var,yok,yok,yok,yok,yok,yok,yok,yok,yok,yok,yok,var,yok,yok,yok,yok,kademe_5,kotu,bilinmiyor,iyi,0_50_m2,2_oda,orta_4_7_kat,1_banyo,yok,yok,dusuk,orta,orta,orta,yok,1_5_2_Milyon_TL_Arasi
Kahramanmaras,Dulkadiroglu,Satilik,16_20_arasi,1,Kombi_Dogalgaz,bilinmiyor,yok,var,var,var,yok,var,var,var,var,yok,var,yok,yok,var,yok,yok,yok,yok,yok,yok,yok,yok,var,yok,yok,var,var,yok,yok,yok,kademe_5,kotu,kotu,kotu,150_200_m2,4_oda,orta_4_7_kat,1_banyo,orta,dusuk,orta,orta,orta,yuksek,yok,3_4_Milyon_TL_Arasi
Hatay,Iskenderun,Satilik,11_15_arasi,3,Kombi_Dogalgaz,bilinmiyor,yok,var,var,var,yok,var,yok,yok,yok,yok,var,var,yok,var,yok,yok,yok,yok,yok,yok,yok,yok,yok,var,yok,yok,var,yok,var,yok,kademe_5,normal,kotu,kotu,200_300_m2,7_oda_ve_ustu,orta_4_7_kat,3_banyo_ve_ustu,dusuk,orta,yok,dusuk,yok,yuksek,yok,7_Bucuk_10_Milyon_TL_Arasi
Tokat,Merkez,Satilik,0,3,Kombi,bilinmiyor,yok,var,var,var,yok,yok,var,yok,var,yok,var,yok,yok,yok,yok,yok,yok,yok,yok,yok,yok,yok,yok,yok,yok,var,yok,yok,yok,yok,kademe_5,kotu,normal,kotu,0_50_m2,2_oda,orta_4_7_kat,1_banyo,yok,yok,yok,dusuk,orta,yok,yok,3_4_Milyon_TL_Arasi
Hatay,Antakya,Satilik,1_5_arasi,3,Kombi_Dogalgaz,bilinmiyor,yok,var,var,var,yok,var,yok,var,var,yok,var,var,yok,var,var,yok,yok,yok,yok,yok,yok,var,var,yok,yok,var,yok,yok,yok,yok,kademe_5,iyi,normal,bilinmiyor,150_200_m2,7_oda_ve_ustu,orta_4_7_kat,2_banyo,dusuk,yok,yok,dusuk,orta,yuksek,yok,5_7_Bucuk_Milyon_TL_Arasi
Yozgat,Yerkoy,Satilik,26_30_arasi,4,Kombi_Dogalgaz,bilinmiyor,yok,yok,yok,var,yok,var,var,yok,yok,yok,yok,yok,yok,yok,yok,yok,yok,yok,yok,yok,yok,yok,yok,yok,yok,var,yok,yok,yok,yok,kademe_5,normal,normal,kotu,150_200_m2,4_oda,orta_4_7_kat,1_banyo,yok,yok,yok,dusuk,yok,dusuk,yok,1_5_2_Milyon_TL_Arasi
Nigde,Merkez,Satilik,0,1,Merkezi,bilinmiyor,yok,var,var,yok,yok,yok,var,var,yok,yok,var,yok,yok,yok,yok,yok,yok,yok,yok,yok,yok,yok,yok,yok,yok,yok,yok,yok,yok,yok,kademe_5,iyi,normal,bilinmiyor,100_125_m2,2_oda,yuksek_8_15_kat,1_banyo,dusuk,yok,yok,dusuk,orta,orta,yok,4_5_Milyon_TL_Arasi
Hatay,Iskenderun,Satilik,11_15_arasi,4,Kombi_Dogalgaz,bilinmiyor,yok,var,var,var,yok,yok,var,yok,var,yok,var,var,yok,var,yok,yok,yok,yok,var,yok,yok,yok,yok,yok,yok,var,yok,yok,yok,yok,kademe_5,normal,bilinmiyor,bilinmiyor,150_200_m2,4_oda,yuksek_8_15_kat,2_banyo,dusuk,yok,yok,orta,orta,yuksek,yok,4_5_Milyon_TL_Arasi
Hatay,Payas,Satilik,1_5_arasi,6,Kombi_Elektrik,bilinmiyor,yok,yok,yok,yok,yok,yok,yok,var,yok,yok,yok,yok,yok,yok,yok,yok,yok,yok,yok,yok,yok,yok,yok,yok,yok,yok,yok,yok,yok,yok,kademe_5,bilinmiyor,bilinmiyor,kotu,125_150_m2,4_oda,orta_4_7_kat,2_banyo,yok,yok,yok,dusuk,yok,yok,yok,3_4_Milyon_TL_Arasi
Hatay,Iskenderun,Satilik,31_ve_uzeri,3,Klima,bilinmiyor,yok,var,var,yok,yok,var,var,yok,yok,yok,var,yok,yok,yok,yok,yok,yok,yok,yok,yok,yok,yok,yok,yok,yok,var,yok,yok,yok,yok,kademe_5,normal,bilinmiyor,bilinmiyor,100_125_m2,4_oda,orta_4_7_kat,1_banyo,yok,yok,yok,orta,dusuk,orta,yok,2_3_Milyon_TL_Arasi
Erzurum,Palandoken,Satilik,0,1,Merkezi,bilinmiyor,yok,var,var,var,yok,yok,var,var,yok,yok,var,var,yok,var,yok,yok,yok,yok,yok,yok,yok,yok,yok,yok,yok,yok,yok,yok,yok,yok,kademe_5,kotu,bilinmiyor,kotu,100_125_m2,3_oda,yuksek_8_15_kat,2_banyo,dusuk,dusuk,yok,dusuk,orta,yuksek,yok,3_4_Milyon_TL_Arasi
Hatay,Antakya,Satilik,11_15_arasi,Giris,Kombi,bilinmiyor,yok,yok,var,var,yok,yok,var,yok,var,yok,yok,yok,yok,var,yok,yok,yok,yok,yok,yok,yok,yok,yok,yok,yok,var,yok,yok,yok,yok,kademe_5,normal,normal,kotu,150_200_m2,4_oda,orta_4_7_kat,1_banyo,dusuk,dusuk,dusuk,orta,yuksek,yuksek,yok,2_3_Milyon_TL_Arasi
Hatay,Iskenderun,Satilik,11_15_arasi,3,Klima,bilinmiyor,yok,yok,yok,yok,yok,yok,yok,yok,yok,yok,yok,yok,yok,yok,yok,yok,yok,yok,yok,yok,yok,yok,yok,yok,yok,yok,yok,yok,yok,yok,kademe_5,normal,bilinmiyor,kotu,100_125_m2,4_oda,orta_4_7_kat,1_banyo,yok,yok,yok,dusuk,yok,orta,yok,2_3_Milyon_TL_Arasi
Kahramanmaras,Onikisubat,Satilik,6_10_arasi,3,Kombi_Dogalgaz,bilinmiyor,yok,yok,yok,var,yok,yok,yok,yok,yok,yok,yok,yok,yok,yok,yok,yok,yok,yok,yok,yok,yok,yok,yok,yok,yok,yok,yok,yok,yok,yok,kademe_5,bilinmiyor,bilinmiyor,bilinmiyor,125_150_m2,4_oda,yuksek_8_15_kat,1_banyo,yok,yok,yok,dusuk,yok,yok,yok,4_5_Milyon_TL_Arasi
Nigde,Camardi,Satilik,1_5_arasi,Bahce,Soba,bilinmiyor,yok,var,yok,yok,yok,yok,var,yok,yok,yok,yok,yok,yok,yok,yok,yok,yok,yok,yok,yok,yok,yok,var,yok,yok,yok,yok,yok,yok,var,kademe_5,normal,bilinmiyor,bilinmiyor,100_125_m2,4_oda,bilinmiyor,1_banyo,yok,dusuk,yok,dusuk,dusuk,dusuk,yok,3_4_Milyon_TL_Arasi
Hatay,Arsuz,Satilik,0,bilinmiyor,Klima,bilinmiyor,yok,var,yok,var,yok,var,var,var,var,yok,var,var,yok,yok,yok,yok,yok,yok,var,yok,yok,var,yok,yok,yok,yok,var,yok,yok,yok,kademe_5,bilinmiyor,bilinmiyor,bilinmiyor,150_200_m2,4_oda,alcak_1_3_kat,3_banyo_ve_ustu,dusuk,dusuk,yok,dusuk,dusuk,yuksek,yok,10_Milyon_TL_Ustu
Hatay,Iskenderun,Satilik,11_15_arasi,Kot_1,Kombi_Dogalgaz,bilinmiyor,yok,var,yok,yok,yok,yok,yok,yok,yok,yok,yok,yok,yok,yok,yok,yok,yok,yok,yok,yok,yok,yok,yok,yok,yok,yok,yok,yok,yok,yok,kademe_5,normal,normal,bilinmiyor,200_300_m2,4_oda,yuksek_8_15_kat,2_banyo,yok,yok,yok,dusuk,yok,yok,yok,5_7_Bucuk_Milyon_TL_Arasi
Yozgat,Sarikaya,Satilik,1_5_arasi,3,Kombi,bilinmiyor,yok,var,var,var,yok,yok,yok,yok,yok,yok,yok,yok,yok,yok,yok,yok,yok,yok,yok,yok,yok,yok,yok,yok,yok,yok,yok,yok,yok,yok,kademe_5,normal,normal,iyi,125_150_m2,4_oda,yuksek_8_15_kat,2_banyo,yok,yok,yok,dusuk,yok,yok,yok,4_5_Milyon_TL_Arasi
Hatay,Arsuz,Satilik,1_5_arasi,2,Klima,bilinmiyor,yok,var,yok,yok,yok,yok,yok,var,var,yok,var,yok,yok,yok,yok,yok,yok,yok,yok,yok,yok,yok,yok,yok,yok,var,var,yok,var,yok,kademe_5,kotu,kotu,bilinmiyor,100_125_m2,4_oda,alcak_1_3_kat,1_banyo,yok,yok,yok,dusuk,orta,orta,yok,4_5_Milyon_TL_Arasi
Erzurum,Aziziye,Satilik,26_30_arasi,2,Kombi_Dogalgaz,bilinmiyor,yok,yok,yok,var,yok,yok,var,var,yok,yok,yok,yok,yok,yok,yok,yok,yok,yok,yok,yok,yok,yok,yok,yok,yok,yok,yok,yok,yok,yok,kademe_5,kotu,kotu,bilinmiyor,150_200_m2,4_oda,alcak_1_3_kat,1_banyo,yok,yok,yok,dusuk,yok,yok,yok,2_3_Milyon_TL_Arasi
Hatay,Antakya,Satilik,0,Yuksek_Giris,Kombi_Dogalgaz,bilinmiyor,yok,var,var,var,var,yok,var,yok,var,yok,var,yok,yok,var,yok,yok,yok,yok,yok,yok,yok,yok,var,yok,yok,var,yok,yok,yok,yok,kademe_5,bilinmiyor,bilinmiyor,bilinmiyor,50_75_m2,3_oda,orta_4_7_kat,1_banyo,dusuk,dusuk,yok,orta,orta,yuksek,yok,2_3_Milyon_TL_Arasi
Hatay,Defne,Satilik,6_10_arasi,2,Kombi,bilinmiyor,yok,var,yok,var,yok,yok,var,var,yok,yok,var,yok,yok,yok,yok,yok,yok,yok,yok,yok,yok,yok,var,yok,yok,var,yok,yok,yok,yok,kademe_5,iyi,normal,bilinmiyor,125_150_m2,3_oda,orta_4_7_kat,1_banyo,yok,dusuk,dusuk,orta,yuksek,orta,yok,2_3_Milyon_TL_Arasi
Hatay,Dortyol,Satilik,6_10_arasi,1,Kombi,bilinmiyor,yok,var,var,var,yok,yok,var,yok,var,yok,var,var,yok,yok,yok,yok,yok,yok,yok,yok,yok,yok,yok,yok,yok,yok,yok,yok,yok,yok,kademe_5,iyi,normal,iyi,300_m2_ve_ustu,5_oda,orta_4_7_kat,2_banyo,dusuk,orta,dusuk,dusuk,orta,yuksek,yok,7_Bucuk_10_Milyon_TL_Arasi
Hatay,Antakya,Satilik,11_15_arasi,1,Kombi_Dogalgaz,bilinmiyor,yok,var,var,yok,yok,var,var,var,yok,yok,var,yok,yok,var,yok,yok,yok,yok,yok,yok,yok,yok,yok,yok,yok,var,yok,yok,yok,yok,kademe_5,iyi,bilinmiyor,bilinmiyor,125_150_m2,4_oda,orta_4_7_kat,1_banyo,dusuk,dusuk,yok,dusuk,yok,yuksek,yok,2_3_Milyon_TL_Arasi
Hatay,Defne,Satilik,6_10_arasi,Ara_Kat,Kombi,bilinmiyor,yok,yok,yok,var,yok,yok,yok,yok,yok,yok,yok,yok,yok,yok,yok,yok,yok,yok,yok,yok,yok,yok,yok,yok,yok,yok,yok,yok,yok,yok,kademe_5,iyi,normal,bilinmiyor,150_200_m2,4_oda,orta_4_7_kat,1_banyo,yok,yok,yok,dusuk,yok,yok,yok,4_5_Milyon_TL_Arasi
Tokat,Merkez,Satilik,6_10_arasi,3,Merkezi,bilinmiyor,yok,var,var,var,yok,yok,yok,var,var,yok,var,var,yok,var,yok,yok,yok,yok,var,yok,yok,yok,var,yok,yok,var,yok,yok,yok,yok,kademe_5,bilinmiyor,kotu,bilinmiyor,200_300_m2,5_oda,cok_yuksek_16_ustu_kat,2_banyo,dusuk,yok,dusuk,dusuk,dusuk,yuksek,yok,5_7_Bucuk_Milyon_TL_Arasi
Hatay,Iskenderun,Satilik,0,5,Klima,bilinmiyor,yok,yok,var,yok,yok,yok,yok,yok,yok,yok,yok,yok,yok,yok,yok,yok,yok,yok,yok,yok,yok,var,yok,yok,yok,yok,yok,yok,yok,yok,kademe_5,bilinmiyor,bilinmiyor,bilinmiyor,75_100_m2,3_oda,orta_4_7_kat,1_banyo,yok,yok,yok,dusuk,dusuk,dusuk,yok,4_5_Milyon_TL_Arasi
Osmaniye,Merkez,Satilik,6_10_arasi,1,Kombi,bilinmiyor,yok,var,var,var,yok,yok,yok,yok,yok,yok,yok,yok,yok,yok,yok,yok,yok,yok,yok,yok,yok,yok,yok,yok,yok,yok,yok,yok,yok,yok,kademe_5,iyi,normal,bilinmiyor,300_m2_ve_ustu,5_oda,orta_4_7_kat,2_banyo,yok,yok,yok,dusuk,yok,yok,yok,3_4_Milyon_TL_Arasi
Erzurum,Yakutiye,Satilik,0,4,Yerden_Isitma,bilinmiyor,yok,var,var,var,yok,yok,var,yok,yok,yok,var,var,yok,var,yok,yok,yok,yok,yok,yok,yok,yok,var,yok,yok,yok,yok,yok,yok,yok,kademe_5,iyi,bilinmiyor,iyi,100_125_m2,3_oda,orta_4_7_kat,2_banyo,dusuk,dusuk,dusuk,dusuk,orta,yuksek,yok,3_4_Milyon_TL_Arasi
Nigde,Merkez,Satilik,0,1,Kombi_Dogalgaz,bilinmiyor,yok,var,var,var,yok,var,var,yok,var,yok,var,var,yok,var,yok,yok,yok,yok,yok,yok,yok,yok,var,yok,yok,var,yok,yok,yok,yok,kademe_5,bilinmiyor,iyi,bilinmiyor,150_200_m2,4_oda,yuksek_8_15_kat,2_banyo,dusuk,dusuk,yok,dusuk,orta,yuksek,yok,5_7_Bucuk_Milyon_TL_Arasi
Hatay,Dortyol,Satilik,11_15_arasi,Yuksek_Giris,Kombi,bilinmiyor,yok,var,yok,var,yok,yok,var,var,var,yok,var,var,yok,yok,yok,yok,yok,yok,yok,yok,yok,yok,yok,yok,yok,yok,yok,yok,yok,yok,kademe_5,iyi,normal,bilinmiyor,150_200_m2,4_oda,orta_4_7_kat,2_banyo,dusuk,yok,dusuk,dusuk,orta,orta,yok,4_5_Milyon_TL_Arasi
Kahramanmaras,Onikisubat,Satilik,1_5_arasi,2,belirtilmemis_dogalgaz,bilinmiyor,yok,var,var,var,yok,var,var,var,yok,yok,var,yok,yok,yok,yok,yok,yok,yok,yok,yok,yok,yok,yok,yok,yok,var,yok,yok,yok,yok,kademe_5,kotu,bilinmiyor,kotu,100_125_m2,2_oda,alcak_1_3_kat,1_banyo,yok,yok,yok,dusuk,yok,dusuk,yok,2_3_Milyon_TL_Arasi
Hatay,Erzin,Satilik,1_5_arasi,5,isitma_yok,bilinmiyor,yok,var,var,var,yok,var,var,yok,var,yok,var,yok,yok,var,yok,yok,yok,yok,yok,yok,yok,yok,var,yok,yok,var,yok,yok,yok,yok,kademe_5,iyi,bilinmiyor,normal,100_125_m2,3_oda,orta_4_7_kat,1_banyo,dusuk,dusuk,dusuk,dusuk,yuksek,yuksek,yok,2_3_Milyon_TL_Arasi
Hatay,Antakya,Satilik,1_5_arasi,Yuksek_Giris,Merkezi,bilinmiyor,yok,var,var,var,yok,var,yok,yok,var,yok,var,yok,yok,yok,yok,yok,yok,yok,yok,yok,yok,yok,var,yok,yok,yok,yok,yok,yok,yok,kademe_5,normal,normal,bilinmiyor,125_150_m2,4_oda,orta_4_7_kat,1_banyo,yok,dusuk,yok,dusuk,orta,orta,yok,2_3_Milyon_TL_Arasi
Hatay,Antakya,Satilik,0,4,Kombi_Dogalgaz,bilinmiyor,yok,yok,var,var,yok,var,var,var,yok,yok,var,var,yok,var,yok,yok,yok,yok,yok,yok,yok,yok,var,yok,yok,var,yok,yok,yok,yok,kademe_5,iyi,bilinmiyor,bilinmiyor,150_200_m2,4_oda,yuksek_8_15_kat,2_banyo,dusuk,dusuk,yok,orta,orta,yuksek,yok,5_7_Bucuk_Milyon_TL_Arasi
Tokat,Merkez,Satilik,1_5_arasi,2,Kombi_Dogalgaz,bilinmiyor,yok,var,yok,var,yok,yok,var,yok,var,yok,var,yok,yok,var,yok,yok,yok,yok,yok,yok,yok,yok,yok,yok,yok,var,yok,yok,yok,yok,kademe_5,normal,normal,iyi,50_75_m2,2_oda,alcak_1_3_kat,1_banyo,dusuk,yok,yok,dusuk,orta,yuksek,yok,2_3_Milyon_TL_Arasi
Yozgat,Merkez,Satilik,6_10_arasi,Ara_Kat,Kombi_Dogalgaz,bilinmiyor,yok,yok,var,var,yok,yok,yok,yok,yok,yok,var,yok,yok,var,yok,yok,yok,yok,yok,yok,yok,yok,yok,yok,yok,var,yok,yok,yok,yok,kademe_5,kotu,normal,bilinmiyor,125_150_m2,3_oda,orta_4_7_kat,2_banyo,yok,yok,dusuk,dusuk,orta,yuksek,yok,3_4_Milyon_TL_Arasi
Hatay,Iskenderun,Satilik,1_5_arasi,3,Kombi,bilinmiyor,yok,var,var,yok,yok,var,yok,var,var,yok,var,var,yok,yok,yok,yok,yok,yok,yok,yok,yok,var,yok,yok,yok,var,yok,yok,yok,yok,kademe_5,kotu,normal,bilinmiyor,150_200_m2,4_oda,yuksek_8_15_kat,2_banyo,dusuk,dusuk,dusuk,dusuk,orta,yuksek,yok,4_5_Milyon_TL_Arasi
Nigde,Merkez,Satilik,1_5_arasi,2,Kombi_Dogalgaz,bilinmiyor,yok,var,var,var,yok,yok,var,var,var,yok,var,var,yok,var,yok,yok,yok,yok,yok,yok,yok,yok,yok,yok,yok,var,yok,yok,yok,yok,kademe_5,bilinmiyor,iyi,bilinmiyor,150_200_m2,4_oda,yuksek_8_15_kat,bilinmiyor,orta,dusuk,yok,dusuk,orta,yuksek,yok,5_7_Bucuk_Milyon_TL_Arasi
Kahramanmaras,Dulkadiroglu,Satilik,16_20_arasi,Ara_Kat,Kombi_Dogalgaz,bilinmiyor,yok,yok,yok,yok,yok,yok,var,var,yok,yok,yok,yok,yok,yok,yok,yok,yok,yok,yok,yok,yok,yok,yok,yok,yok,yok,yok,yok,yok,yok,kademe_5,normal,bilinmiyor,kotu,100_125_m2,3_oda,orta_4_7_kat,1_banyo,yok,yok,yok,dusuk,yok,yok,yok,1_5_2_Milyon_TL_Arasi
Hatay,Antakya,Satilik,0,2,Merkezi,bilinmiyor,yok,var,var,var,yok,var,var,var,yok,yok,var,yok,yok,yok,yok,yok,yok,yok,yok,yok,yok,yok,var,yok,yok,var,yok,yok,yok,yok,kademe_5,normal,bilinmiyor,kotu,125_150_m2,4_oda,orta_4_7_kat,1_banyo,yok,yok,dusuk,dusuk,yuksek,orta,yok,1_5_Milyon_TL_Alti
Hatay,Antakya,Satilik,6_10_arasi,Yuksek_Giris,Kombi,bilinmiyor,yok,var,var,var,yok,yok,yok,yok,yok,yok,var,yok,yok,yok,yok,yok,yok,yok,var,yok,yok,yok,var,yok,yok,var,yok,yok,yok,yok,kademe_5,normal,normal,bilinmiyor,100_125_m2,3_oda,yuksek_8_15_kat,1_banyo,dusuk,yok,dusuk,orta,orta,orta,yok,3_4_Milyon_TL_Arasi
Nigde,Merkez,Satilik,11_15_arasi,4,Merkezi,bilinmiyor,yok,var,var,var,yok,var,yok,yok,var,yok,var,yok,yok,var,yok,yok,yok,yok,yok,yok,yok,yok,yok,yok,yok,var,yok,yok,yok,yok,kademe_5,bilinmiyor,bilinmiyor,bilinmiyor,150_200_m2,4_oda,yuksek_8_15_kat,1_banyo,orta,yok,dusuk,orta,orta,yuksek,yok,3_4_Milyon_TL_Arasi
Yozgat,Merkez,Satilik,16_20_arasi,4,Kombi_Dogalgaz,bilinmiyor,yok,var,yok,var,yok,yok,yok,yok,yok,yok,yok,yok,yok,yok,yok,yok,yok,yok,yok,yok,yok,yok,yok,yok,yok,yok,yok,yok,yok,yok,kademe_5,kotu,normal,bilinmiyor,150_200_m2,4_oda,orta_4_7_kat,1_banyo,yok,yok,yok,yok,yok,orta,yok,2_3_Milyon_TL_Arasi
Hatay,Dortyol,Satilik,26_30_arasi,1,Kombi,bilinmiyor,yok,var,yok,var,yok,var,var,var,yok,yok,yok,yok,yok,yok,yok,yok,yok,yok,yok,yok,yok,yok,yok,yok,yok,yok,yok,yok,yok,yok,kademe_5,normal,normal,iyi,150_200_m2,4_oda,orta_4_7_kat,1_banyo,yok,yok,yok,dusuk,yok,yok,yok,2_3_Milyon_TL_Arasi
Nigde,Bor,Satilik,1_5_arasi,bilinmiyor,Soba,bilinmiyor,yok,yok,yok,yok,yok,var,var,var,var,yok,var,yok,yok,yok,yok,yok,yok,yok,yok,yok,yok,yok,yok,yok,yok,yok,var,yok,yok,yok,kademe_5,bilinmiyor,bilinmiyor,bilinmiyor,150_200_m2,6_oda,alcak_1_3_kat,2_banyo,yok,yok,dusuk,dusuk,yok,dusuk,yok,5_7_Bucuk_Milyon_TL_Arasi
Erzurum,Aziziye,Satilik,0,1,Yerden_Isitma,bilinmiyor,yok,var,yok,var,yok,yok,yok,yok,yok,yok,yok,yok,yok,yok,yok,yok,yok,yok,yok,yok,yok,yok,yok,yok,yok,yok,yok,yok,yok,yok,kademe_5,bilinmiyor,bilinmiyor,bilinmiyor,50_75_m2,2_oda,orta_4_7_kat,1_banyo,yok,yok,yok,dusuk,yok,dusuk,yok,2_3_Milyon_TL_Arasi
Hatay,Arsuz,Satilik,1_5_arasi,Ara_Kat,Klima,bilinmiyor,yok,var,yok,yok,yok,yok,yok,yok,yok,yok,var,var,yok,var,yok,yok,yok,yok,yok,yok,yok,yok,yok,yok,yok,yok,yok,yok,yok,yok,kademe_5,iyi,iyi,bilinmiyor,150_200_m2,4_oda,yuksek_8_15_kat,1_banyo,dusuk,dusuk,yok,dusuk,yok,yuksek,yok,5_7_Bucuk_Milyon_TL_Arasi
Nigde,Merkez,Satilik,1_5_arasi,Bahce,Soba,bilinmiyor,yok,var,yok,yok,yok,yok,var,var,yok,yok,yok,yok,yok,yok,yok,yok,yok,yok,yok,yok,yok,yok,yok,yok,yok,yok,yok,yok,yok,yok,kademe_5,kotu,normal,bilinmiyor,75_100_m2,3_oda,bilinmiyor,1_banyo,yok,yok,yok,dusuk,yok,yok,yok,4_5_Milyon_TL_Arasi
Hatay,Hassa,Satilik,1_5_arasi,3,Kombi_Dogalgaz,bilinmiyor,yok,var,var,yok,yok,yok,var,yok,yok,yok,var,var,yok,yok,yok,yok,yok,yok,yok,yok,yok,yok,yok,yok,yok,var,yok,yok,yok,yok,kademe_5,iyi,normal,normal,150_200_m2,4_oda,orta_4_7_kat,2_banyo,dusuk,yok,yok,orta,dusuk,yuksek,yok,2_3_Milyon_TL_Arasi
Hatay,Antakya,Satilik,6_10_arasi,Kot_1,Kombi_Dogalgaz,bilinmiyor,yok,var,var,var,yok,yok,yok,var,yok,yok,var,var,yok,var,yok,yok,yok,yok,yok,yok,yok,yok,var,yok,yok,var,yok,yok,yok,yok,kademe_5,normal,bilinmiyor,iyi,200_300_m2,5_oda,orta_4_7_kat,2_banyo,dusuk,dusuk,yok,dusuk,yok,yuksek,yok,10_Milyon_TL_Ustu
Nigde,Merkez,Satilik,0,2,Kombi_Dogalgaz,bilinmiyor,yok,var,var,var,yok,var,var,var,yok,yok,var,yok,yok,var,yok,yok,yok,yok,yok,yok,yok,yok,yok,yok,yok,yok,yok,yok,yok,yok,kademe_5,bilinmiyor,iyi,bilinmiyor,100_125_m2,3_oda,yuksek_8_15_kat,1_banyo,dusuk,dusuk,yok,dusuk,orta,orta,yok,5_7_Bucuk_Milyon_TL_Arasi
Hatay,Arsuz,Satilik,26_30_arasi,bilinmiyor,Klima,bilinmiyor,yok,yok,yok,var,yok,var,var,var,var,yok,yok,var,yok,yok,yok,yok,yok,yok,var,yok,yok,yok,yok,yok,yok,yok,var,yok,yok,yok,kademe_5,bilinmiyor,bilinmiyor,bilinmiyor,300_m2_ve_ustu,4_oda,alcak_1_3_kat,1_banyo,yok,dusuk,yok,dusuk,yok,orta,yok,10_Milyon_TL_Ustu
Osmaniye,Merkez,Satilik,6_10_arasi,Yuksek_Giris,Kombi_Dogalgaz,bilinmiyor,yok,var,var,var,yok,yok,var,yok,yok,yok,yok,yok,yok,yok,yok,yok,yok,yok,yok,yok,yok,yok,yok,yok,yok,yok,yok,yok,yok,yok,kademe_5,normal,normal,bilinmiyor,125_150_m2,4_oda,orta_4_7_kat,1_banyo,yok,yok,yok,dusuk,orta,dusuk,yok,2_3_Milyon_TL_Arasi
Hatay,Iskenderun,Satilik,11_15_arasi,Cati,isitma_yok,bilinmiyor,yok,var,var,var,yok,yok,yok,yok,yok,yok,yok,yok,yok,yok,yok,yok,yok,yok,yok,yok,yok,yok,yok,yok,yok,yok,yok,yok,yok,yok,kademe_5,normal,normal,bilinmiyor,200_300_m2,5_oda,orta_4_7_kat,2_banyo,yok,yok,yok,dusuk,yok,yok,yok,4_5_Milyon_TL_Arasi
Hatay,Arsuz,Satilik,0,Ara_Kat,bilinmiyor,bilinmiyor,yok,var,var,var,yok,yok,var,var,yok,yok,var,yok,yok,yok,yok,yok,yok,yok,var,yok,yok,yok,var,yok,yok,yok,yok,yok,yok,yok,kademe_5,iyi,bilinmiyor,bilinmiyor,100_125_m2,3_oda,orta_4_7_kat,1_banyo,dusuk,dusuk,yok,dusuk,dusuk,dusuk,yok,5_7_Bucuk_Milyon_TL_Arasi
Hatay,Reyhanli,Satilik,11_15_arasi,4,Kombi_Dogalgaz,bilinmiyor,yok,var,var,yok,yok,yok,var,yok,yok,yok,var,var,yok,yok,yok,yok,yok,yok,yok,yok,yok,yok,yok,yok,yok,yok,yok,yok,yok,yok,kademe_5,kotu,iyi,bilinmiyor,150_200_m2,4_oda,orta_4_7_kat,2_banyo,yok,yok,yok,dusuk,yok,dusuk,yok,2_3_Milyon_TL_Arasi
Hatay,Samandag,Satilik,21_25_arasi,bilinmiyor,Klima,bilinmiyor,yok,yok,yok,yok,yok,yok,yok,var,yok,yok,yok,yok,yok,yok,yok,yok,yok,yok,var,yok,yok,var,yok,yok,yok,yok,var,yok,yok,yok,kademe_5,normal,kotu,bilinmiyor,100_125_m2,4_oda,alcak_1_3_kat,2_banyo,yok,yok,yok,yok,yok,orta,yok,10_Milyon_TL_Ustu
Hatay,Iskenderun,Satilik,21_25_arasi,Giris,belirtilmemis_elektrik,bilinmiyor,yok,var,var,yok,yok,var,var,var,yok,yok,yok,yok,yok,yok,yok,yok,yok,yok,yok,yok,yok,var,var,yok,yok,var,yok,yok,yok,yok,kademe_5,normal,normal,normal,100_125_m2,4_oda,orta_4_7_kat,1_banyo,yok,yok,yok,orta,yok,dusuk,yok,1_5_2_Milyon_TL_Arasi
Hatay,Defne,Satilik,11_15_arasi,3,Kombi_Dogalgaz,bilinmiyor,yok,var,var,var,yok,yok,yok,yok,yok,yok,var,yok,yok,var,yok,yok,yok,yok,yok,yok,yok,yok,yok,yok,yok,var,yok,yok,yok,yok,kademe_5,normal,normal,bilinmiyor,200_300_m2,5_oda,yuksek_8_15_kat,1_banyo,dusuk,dusuk,dusuk,orta,orta,yuksek,yok,5_7_Bucuk_Milyon_TL_Arasi
Hatay,Arsuz,Satilik,6_10_arasi,En_Ust_Kat,Gunes_Enerjisi,bilinmiyor,yok,yok,var,yok,yok,yok,yok,yok,yok,yok,yok,yok,yok,yok,yok,yok,yok,yok,yok,yok,yok,yok,yok,yok,yok,yok,yok,yok,yok,yok,kademe_5,kotu,normal,kotu,200_300_m2,4_oda,orta_4_7_kat,2_banyo,yok,yok,yok,dusuk,yok,yok,yok,4_5_Milyon_TL_Arasi
Tokat,Zile,Satilik,0,7,Kombi,bilinmiyor,yok,var,var,var,yok,yok,yok,yok,yok,yok,yok,yok,yok,yok,yok,yok,yok,yok,yok,yok,yok,yok,yok,yok,yok,yok,yok,yok,yok,yok,kademe_5,normal,bilinmiyor,bilinmiyor,75_100_m2,3_oda,yuksek_8_15_kat,1_banyo,yok,yok,yok,dusuk,yok,dusuk,yok,3_4_Milyon_TL_Arasi
Kahramanmaras,Onikisubat,Satilik,6_10_arasi,6,Kombi_Dogalgaz,bilinmiyor,yok,var,var,var,yok,yok,yok,yok,yok,yok,yok,yok,yok,var,yok,yok,yok,yok,yok,yok,yok,yok,var,yok,yok,var,yok,yok,yok,yok,kademe_5,kotu,kotu,bilinmiyor,125_150_m2,4_oda,orta_4_7_kat,1_banyo,dusuk,dusuk,yok,dusuk,dusuk,yuksek,yok,2_3_Milyon_TL_Arasi
Kahramanmaras,Onikisubat,Satilik,6_10_arasi,5,Kombi,bilinmiyor,yok,var,yok,var,yok,yok,var,var,var,yok,var,yok,yok,yok,yok,yok,yok,yok,yok,yok,yok,yok,yok,yok,yok,yok,yok,yok,yok,yok,kademe_5,kotu,normal,bilinmiyor,200_300_m2,5_oda,orta_4_7_kat,2_banyo,dusuk,yok,yok,dusuk,orta,dusuk,yok,7_Bucuk_10_Milyon_TL_Arasi
Yozgat,Sarikaya,Satilik,6_10_arasi,2,Kombi,bilinmiyor,yok,var,yok,var,yok,yok,yok,yok,yok,yok,yok,yok,yok,yok,yok,yok,yok,yok,yok,yok,yok,yok,yok,yok,yok,yok,yok,yok,yok,yok,kademe_5,bilinmiyor,bilinmiyor,bilinmiyor,125_150_m2,4_oda,orta_4_7_kat,1_banyo,yok,yok,yok,dusuk,yok,yok,yok,4_5_Milyon_TL_Arasi
Tokat,Merkez,Satilik,21_25_arasi,En_Ust_Kat,Kombi_Dogalgaz,bilinmiyor,yok,yok,yok,yok,yok,var,var,var,yok,yok,yok,yok,yok,yok,yok,yok,yok,yok,yok,yok,yok,yok,yok,yok,yok,var,var,yok,yok,yok,kademe_5,iyi,kotu,bilinmiyor,200_300_m2,5_oda,orta_4_7_kat,2_banyo,yok,yok,yok,yok,yok,yok,yok,4_5_Milyon_TL_Arasi
Tokat,Merkez,Satilik,16_20_arasi,2,Kombi_Dogalgaz,bilinmiyor,yok,yok,var,yok,yok,yok,var,yok,yok,yok,yok,yok,yok,yok,yok,yok,yok,yok,yok,yok,yok,yok,yok,yok,yok,yok,yok,yok,yok,yok,kademe_5,bilinmiyor,normal,bilinmiyor,125_150_m2,3_oda,orta_4_7_kat,bilinmiyor,yok,yok,yok,yok,yok,yok,yok,5_7_Bucuk_Milyon_TL_Arasi
Hatay,Antakya,Satilik,0,Yuksek_Giris,Merkezi,bilinmiyor,yok,var,var,var,yok,var,yok,var,yok,yok,var,yok,yok,yok,yok,yok,yok,yok,yok,yok,yok,yok,yok,yok,yok,yok,yok,yok,yok,yok,kademe_5,kotu,bilinmiyor,bilinmiyor,100_125_m2,4_oda,orta_4_7_kat,1_banyo,dusuk,dusuk,yok,orta,dusuk,yuksek,yok,2_3_Milyon_TL_Arasi
Nigde,Merkez,Satilik,6_10_arasi,7,Merkezi,bilinmiyor,yok,var,var,var,yok,yok,var,var,yok,yok,var,yok,yok,yok,yok,yok,yok,yok,yok,yok,yok,yok,yok,yok,yok,var,yok,yok,yok,yok,kademe_5,kotu,normal,bilinmiyor,150_200_m2,4_oda,yuksek_8_15_kat,1_banyo,dusuk,dusuk,yok,dusuk,orta,orta,yok,4_5_Milyon_TL_Arasi
Osmaniye,Duzici,Satilik,1_5_arasi,4,Kombi_Dogalgaz,bilinmiyor,yok,yok,yok,yok,yok,var,var,yok,yok,yok,var,var,yok,var,yok,yok,yok,yok,yok,yok,yok,yok,yok,yok,yok,yok,yok,yok,yok,yok,kademe_5,kotu,kotu,iyi,150_200_m2,4_oda,yuksek_8_15_kat,2_banyo,dusuk,yok,yok,dusuk,yok,orta,yok,2_3_Milyon_TL_Arasi
Yozgat,Merkez,Satilik,1_5_arasi,Giris,Kombi_Dogalgaz,bilinmiyor,yok,yok,var,var,var,yok,yok,yok,yok,yok,var,yok,yok,var,yok,yok,yok,yok,yok,yok,yok,yok,yok,yok,yok,var,yok,yok,yok,yok,kademe_5,normal,bilinmiyor,normal,50_75_m2,2_oda,orta_4_7_kat,1_banyo,yok,yok,yok,dusuk,yok,orta,yok,1_5_2_Milyon_TL_Arasi
Kahramanmaras,Onikisubat,Satilik,0,2,Merkezi,bilinmiyor,yok,var,yok,var,yok,var,yok,yok,var,yok,yok,var,yok,var,yok,yok,yok,yok,yok,yok,yok,yok,yok,yok,yok,yok,yok,yok,yok,yok,kademe_5,iyi,normal,bilinmiyor,150_200_m2,5_oda,yuksek_8_15_kat,2_banyo,yok,yok,yok,dusuk,orta,dusuk,yok,4_5_Milyon_TL_Arasi
Hatay,Defne,Satilik,21_25_arasi,bilinmiyor,Kombi,bilinmiyor,yok,yok,yok,var,yok,var,var,var,yok,yok,yok,yok,yok,yok,yok,yok,yok,yok,yok,yok,yok,yok,yok,yok,yok,yok,yok,yok,yok,yok,kademe_5,iyi,kotu,iyi,300_m2_ve_ustu,7_oda_ve_ustu,orta_4_7_kat,3_banyo_ve_ustu,yok,yok,dusuk,dusuk,yok,yok,yok,10_Milyon_TL_Ustu
Tokat,Merkez,Satilik,0,Giris,Kombi,bilinmiyor,yok,var,var,var,yok,var,var,var,var,yok,var,yok,yok,yok,yok,yok,yok,yok,yok,yok,yok,yok,var,yok,yok,var,yok,yok,yok,yok,kademe_5,bilinmiyor,bilinmiyor,bilinmiyor,125_150_m2,4_oda,orta_4_7_kat,2_banyo,yok,yok,yok,orta,orta,dusuk,yok,5_7_Bucuk_Milyon_TL_Arasi
Tokat,Turhal,Satilik,26_30_arasi,Bahce,Kombi,bilinmiyor,yok,var,yok,yok,yok,var,yok,var,var,yok,var,yok,yok,yok,yok,yok,yok,yok,yok,yok,yok,yok,yok,yok,yok,yok,yok,yok,yok,yok,kademe_5,kotu,normal,bilinmiyor,150_200_m2,3_oda,bilinmiyor,1_banyo,yok,yok,yok,dusuk,orta,orta,yok,3_4_Milyon_TL_Arasi
Kahramanmaras,Onikisubat,Satilik,21_25_arasi,Bahce,Klima,bilinmiyor,yok,var,yok,yok,yok,yok,yok,var,var,yok,yok,yok,yok,yok,yok,yok,yok,yok,yok,yok,yok,yok,yok,yok,yok,var,yok,yok,yok,yok,kademe_5,kotu,normal,kotu,125_150_m2,3_oda,bilinmiyor,1_banyo,yok,dusuk,yok,dusuk,yuksek,orta,yok,3_4_Milyon_TL_Arasi
Hatay,Arsuz,Satilik,6_10_arasi,Zemin,Klima,bilinmiyor,yok,var,yok,var,yok,yok,yok,yok,yok,yok,yok,yok,yok,yok,yok,yok,yok,yok,yok,yok,yok,yok,yok,yok,yok,yok,yok,yok,yok,yok,kademe_5,kotu,normal,normal,75_100_m2,3_oda,orta_4_7_kat,1_banyo,yok,yok,yok,dusuk,yok,dusuk,yok,3_4_Milyon_TL_Arasi
Kahramanmaras,Onikisubat,Satilik,6_10_arasi,9,Kombi,bilinmiyor,yok,var,var,var,yok,var,var,yok,var,yok,var,var,yok,yok,yok,yok,yok,yok,yok,yok,yok,yok,var,yok,yok,var,yok,yok,yok,yok,kademe_5,normal,kotu,bilinmiyor,150_200_m2,5_oda,yuksek_8_15_kat,2_banyo,dusuk,yok,dusuk,dusuk,yuksek,orta,yok,4_5_Milyon_TL_Arasi
Tokat,Merkez,Satilik,1_5_arasi,Yuksek_Giris,Kombi,bilinmiyor,yok,yok,yok,var,yok,yok,var,yok,yok,yok,var,yok,yok,yok,yok,yok,yok,yok,yok,yok,yok,yok,yok,yok,yok,var,yok,yok,yok,yok,kademe_5,bilinmiyor,normal,bilinmiyor,0_50_m2,2_oda,orta_4_7_kat,1_banyo,yok,yok,dusuk,dusuk,orta,dusuk,yok,2_3_Milyon_TL_Arasi
Tokat,Erbaa,Satilik,21_25_arasi,4,Kombi_Dogalgaz,bilinmiyor,yok,yok,yok,yok,yok,yok,yok,yok,var,yok,yok,yok,yok,yok,yok,yok,yok,yok,yok,yok,yok,yok,yok,yok,yok,yok,yok,yok,yok,yok,kademe_5,kotu,kotu,bilinmiyor,125_150_m2,4_oda,orta_4_7_kat,1_banyo,yok,yok,yok,dusuk,yok,yok,yok,3_4_Milyon_TL_Arasi
Nigde,Merkez,Satilik,0,1,Kombi_Dogalgaz,bilinmiyor,yok,var,var,var,yok,var,var,yok,var,yok,var,var,yok,yok,yok,yok,yok,yok,yok,yok,yok,yok,yok,yok,yok,var,yok,yok,yok,yok,kademe_5,bilinmiyor,iyi,bilinmiyor,150_200_m2,4_oda,yuksek_8_15_kat,2_banyo,dusuk,dusuk,yok,dusuk,orta,yuksek,yok,5_7_Bucuk_Milyon_TL_Arasi
Hatay,Iskenderun,Satilik,0,3,Kat_Kaloriferi,bilinmiyor,yok,var,var,var,yok,yok,yok,yok,yok,yok,var,var,yok,yok,yok,yok,yok,yok,var,yok,yok,var,var,yok,yok,yok,yok,yok,yok,yok,kademe_5,iyi,normal,bilinmiyor,150_200_m2,4_oda,orta_4_7_kat,2_banyo,dusuk,yok,yok,dusuk,yok,yuksek,yok,5_7_Bucuk_Milyon_TL_Arasi
Erzurum,Palandoken,Satilik,11_15_arasi,3,Kombi,bilinmiyor,yok,var,yok,var,yok,yok,var,yok,var,yok,var,var,yok,yok,yok,yok,yok,yok,yok,yok,yok,yok,yok,yok,yok,var,yok,yok,yok,yok,kademe_5,normal,kotu,kotu,150_200_m2,4_oda,orta_4_7_kat,2_banyo,dusuk,yok,dusuk,dusuk,yuksek,orta,yok,4_5_Milyon_TL_Arasi
Osmaniye,Merkez,Satilik,21_25_arasi,Bahce,Klima,bilinmiyor,yok,var,yok,yok,yok,yok,yok,yok,yok,yok,yok,yok,yok,yok,yok,yok,yok,yok,yok,yok,yok,yok,yok,yok,yok,yok,yok,yok,yok,yok,kademe_5,kotu,kotu,normal,100_125_m2,3_oda,bilinmiyor,1_banyo,yok,yok,yok,dusuk,yok,dusuk,yok,7_Bucuk_10_Milyon_TL_Arasi
Hatay,Payas,Satilik,6_10_arasi,1,Kombi,bilinmiyor,yok,var,var,var,yok,var,var,yok,var,yok,yok,yok,yok,yok,yok,yok,yok,yok,yok,yok,yok,yok,yok,yok,yok,yok,yok,yok,yok,yok,kademe_5,normal,kotu,bilinmiyor,150_200_m2,4_oda,orta_4_7_kat,2_banyo,yok,yok,yok,dusuk,yok,orta,yok,2_3_Milyon_TL_Arasi
Tokat,Merkez,Satilik,1_5_arasi,Bahce,Kombi,bilinmiyor,yok,var,var,var,yok,yok,yok,yok,yok,yok,yok,yok,yok,yok,yok,yok,yok,yok,yok,yok,yok,yok,yok,yok,yok,yok,yok,yok,yok,yok,kademe_5,iyi,normal,bilinmiyor,300_m2_ve_ustu,7_oda_ve_ustu,orta_4_7_kat,3_banyo_ve_ustu,yok,yok,yok,dusuk,yok,yok,yok,10_Milyon_TL_Ustu
Hatay,Defne,Satilik,0,1,Kombi,bilinmiyor,yok,var,var,var,yok,var,var,var,yok,yok,var,yok,yok,var,yok,yok,yok,yok,yok,yok,yok,yok,var,yok,yok,yok,yok,yok,yok,yok,kademe_5,iyi,bilinmiyor,normal,100_125_m2,3_oda,orta_4_7_kat,1_banyo,yok,yok,yok,orta,yuksek,yuksek,yok,2_3_Milyon_TL_Arasi
Hatay,Iskenderun,Satilik,6_10_arasi,Ara_Kat,Kombi_Dogalgaz,bilinmiyor,yok,yok,yok,yok,yok,yok,var,yok,var,yok,yok,yok,yok,yok,yok,yok,yok,yok,yok,yok,yok,yok,yok,yok,yok,yok,yok,yok,yok,yok,kademe_5,normal,normal,kotu,125_150_m2,4_oda,orta_4_7_kat,1_banyo,yok,yok,yok,dusuk,yok,yok,yok,2_3_Milyon_TL_Arasi
Hatay,Defne,Satilik,6_10_arasi,bilinmiyor,isi_pompasi_elektrik,bilinmiyor,yok,var,yok,var,yok,var,var,var,var,yok,var,yok,yok,var,yok,yok,yok,yok,yok,yok,yok,yok,var,yok,yok,yok,var,yok,yok,yok,kademe_5,kotu,bilinmiyor,normal,300_m2_ve_ustu,7_oda_ve_ustu,orta_4_7_kat,2_banyo,yok,dusuk,yok,dusuk,orta,yuksek,yok,5_7_Bucuk_Milyon_TL_Arasi
Kahramanmaras,Dulkadiroglu,Satilik,21_25_arasi,Bahce,Kombi,bilinmiyor,yok,var,yok,var,yok,var,var,var,var,yok,yok,yok,yok,yok,yok,yok,yok,yok,yok,yok,yok,yok,var,yok,yok,var,yok,yok,yok,yok,kademe_5,normal,kotu,bilinmiyor,100_125_m2,3_oda,orta_4_7_kat,3_banyo_ve_ustu,dusuk,yok,yok,dusuk,yok,orta,yok,4_5_Milyon_TL_Arasi
Tokat,Niksar,Satilik,0,Ara_Kat,Kombi_Dogalgaz,bilinmiyor,yok,var,yok,yok,yok,yok,yok,yok,yok,yok,var,yok,yok,yok,yok,yok,yok,yok,yok,yok,yok,yok,yok,yok,yok,yok,yok,yok,yok,yok,kademe_5,normal,bilinmiyor,kotu,125_150_m2,2_oda,orta_4_7_kat,1_banyo,dusuk,yok,yok,dusuk,yok,yuksek,yok,3_4_Milyon_TL_Arasi
Hatay,Defne,Satilik,11_15_arasi,3,Kombi,bilinmiyor,yok,var,yok,var,yok,var,yok,var,var,yok,var,yok,yok,yok,yok,yok,yok,yok,yok,yok,yok,yok,yok,yok,yok,yok,yok,yok,yok,yok,kademe_5,iyi,bilinmiyor,bilinmiyor,300_m2_ve_ustu,5_oda,orta_4_7_kat,1_banyo,yok,yok,yok,dusuk,yok,dusuk,yok,4_5_Milyon_TL_Arasi
Hatay,Iskenderun,Satilik,0,3,Kombi,bilinmiyor,yok,var,var,yok,yok,yok,yok,yok,yok,yok,yok,yok,yok,yok,yok,yok,yok,yok,yok,yok,yok,yok,yok,yok,yok,yok,yok,yok,yok,yok,kademe_5,bilinmiyor,bilinmiyor,bilinmiyor,0_50_m2,2_oda,orta_4_7_kat,1_banyo,yok,yok,yok,dusuk,yok,yok,yok,2_3_Milyon_TL_Arasi
Tokat,Niksar,Satilik,0,En_Ust_Kat,Merkezi,bilinmiyor,yok,var,var,var,yok,yok,yok,var,yok,yok,var,yok,yok,var,yok,yok,yok,var,yok,yok,yok,yok,yok,yok,yok,var,yok,yok,yok,yok,kademe_5,normal,bilinmiyor,bilinmiyor,150_200_m2,4_oda,orta_4_7_kat,2_banyo,dusuk,yok,yok,orta,orta,yuksek,yok,4_5_Milyon_TL_Arasi
Tokat,Zile,Satilik,1_5_arasi,3,Kombi,bilinmiyor,yok,yok,yok,yok,yok,yok,yok,yok,yok,yok,yok,yok,yok,yok,yok,yok,yok,yok,yok,yok,yok,yok,yok,yok,yok,yok,yok,yok,yok,yok,kademe_5,kotu,bilinmiyor,bilinmiyor,50_75_m2,3_oda,orta_4_7_kat,1_banyo,yok,yok,yok,dusuk,yok,yok,yok,2_3_Milyon_TL_Arasi
Hatay,Dortyol,Satilik,26_30_arasi,4,Klima,bilinmiyor,yok,var,yok,var,var,yok,yok,var,var,yok,var,yok,yok,yok,var,yok,yok,yok,var,yok,yok,yok,var,yok,yok,yok,yok,yok,yok,yok,kademe_5,normal,kotu,bilinmiyor,100_125_m2,3_oda,orta_4_7_kat,1_banyo,yok,yok,yok,dusuk,dusuk,yuksek,yok,3_4_Milyon_TL_Arasi
Hatay,Antakya,Satilik,16_20_arasi,Kot_2,Kombi_Dogalgaz,bilinmiyor,yok,var,var,yok,yok,yok,yok,yok,yok,yok,yok,yok,yok,yok,yok,yok,yok,yok,yok,yok,yok,yok,yok,yok,yok,yok,yok,yok,yok,yok,kademe_5,iyi,normal,normal,125_150_m2,4_oda,alcak_1_3_kat,1_banyo,yok,yok,yok,dusuk,dusuk,yok,yok,4_5_Milyon_TL_Arasi
Hatay,Arsuz,Satilik,31_ve_uzeri,Bahce,Gunes_Enerjisi,bilinmiyor,yok,var,yok,var,yok,var,var,var,var,yok,yok,var,yok,yok,yok,yok,yok,yok,yok,yok,yok,yok,var,yok,yok,var,yok,yok,yok,yok,kademe_5,normal,kotu,bilinmiyor,125_150_m2,4_oda,bilinmiyor,2_banyo,yok,dusuk,dusuk,orta,yuksek,orta,yok,10_Milyon_TL_Ustu
Erzurum,Yakutiye,Satilik,11_15_arasi,1,Merkezi,bilinmiyor,yok,var,var,var,yok,var,yok,var,yok,yok,var,var,yok,var,yok,yok,yok,yok,yok,yok,yok,yok,yok,yok,yok,var,yok,yok,yok,yok,kademe_5,normal,kotu,kotu,150_200_m2,4_oda,yuksek_8_15_kat,2_banyo,dusuk,yok,dusuk,orta,dusuk,orta,yok,2_3_Milyon_TL_Arasi
Hatay,Dortyol,Satilik,6_10_arasi,2,Kombi,bilinmiyor,yok,var,var,var,yok,var,yok,var,var,yok,var,var,yok,yok,yok,yok,yok,yok,yok,yok,yok,yok,var,yok,yok,var,yok,yok,yok,yok,kademe_5,kotu,kotu,bilinmiyor,200_300_m2,5_oda,yuksek_8_15_kat,2_banyo,dusuk,yok,yok,dusuk,dusuk,yuksek,yok,5_7_Bucuk_Milyon_TL_Arasi
Yozgat,Merkez,Satilik,16_20_arasi,Cati,Kombi_Dogalgaz,bilinmiyor,yok,var,var,yok,yok,yok,yok,var,yok,yok,var,yok,yok,var,yok,yok,yok,yok,yok,yok,yok,yok,yok,yok,yok,yok,yok,yok,yok,yok,kademe_5,normal,bilinmiyor,bilinmiyor,100_125_m2,4_oda,orta_4_7_kat,1_banyo,yok,yok,yok,dusuk,yok,orta,yok,2_3_Milyon_TL_Arasi
Hatay,Arsuz,Satilik,0,Ara_Kat,Kat_Kaloriferi,bilinmiyor,yok,yok,yok,yok,yok,yok,yok,yok,yok,yok,yok,yok,yok,yok,yok,yok,yok,yok,yok,yok,yok,yok,yok,yok,yok,yok,yok,yok,yok,yok,kademe_5,bilinmiyor,normal,iyi,75_100_m2,3_oda,orta_4_7_kat,2_banyo,yok,yok,yok,dusuk,dusuk,yok,yok,4_5_Milyon_TL_Arasi
Yozgat,Merkez,Satilik,1_5_arasi,3,Kombi_Dogalgaz,bilinmiyor,yok,var,var,var,yok,yok,yok,yok,yok,yok,var,yok,yok,var,yok,yok,yok,yok,yok,yok,yok,yok,yok,yok,yok,var,yok,yok,yok,yok,kademe_5,iyi,normal,bilinmiyor,50_75_m2,3_oda,orta_4_7_kat,1_banyo,yok,yok,yok,dusuk,orta,yuksek,yok,1_5_2_Milyon_TL_Arasi
Hatay,Defne,Satilik,1_5_arasi,3,Kombi_Dogalgaz,bilinmiyor,yok,yok,yok,yok,yok,yok,yok,yok,yok,yok,yok,yok,yok,yok,yok,yok,yok,yok,yok,yok,yok,yok,yok,yok,yok,yok,yok,yok,yok,yok,kademe_5,normal,bilinmiyor,kotu,75_100_m2,3_oda,orta_4_7_kat,1_banyo,yok,yok,yok,dusuk,yok,yok,yok,1_5_2_Milyon_TL_Arasi
Hatay,Defne,Satilik,1_5_arasi,Ara_Kat,Kombi_Dogalgaz,bilinmiyor,yok,var,yok,var,yok,yok,yok,yok,yok,yok,yok,yok,yok,yok,yok,yok,yok,yok,yok,yok,yok,yok,yok,yok,yok,yok,yok,yok,yok,yok,kademe_5,normal,normal,iyi,125_150_m2,4_oda,orta_4_7_kat,1_banyo,yok,yok,yok,dusuk,yok,yok,yok,4_5_Milyon_TL_Arasi
Bartin,Merkez,Satilik,0,Yuksek_Giris,Kombi,bilinmiyor,yok,yok,var,var,yok,yok,yok,yok,yok,yok,yok,yok,yok,yok,yok,yok,yok,yok,yok,yok,yok,yok,yok,yok,yok,yok,yok,yok,yok,yok,kademe_5,normal,bilinmiyor,bilinmiyor,0_50_m2,2_oda,alcak_1_3_kat,1_banyo,yok,yok,yok,dusuk,yok,yok,yok,2_3_Milyon_TL_Arasi
Tokat,Merkez,Satilik,11_15_arasi,5,Kombi,bilinmiyor,yok,var,var,var,yok,yok,var,var,yok,yok,var,var,yok,yok,yok,yok,yok,yok,yok,yok,yok,yok,yok,yok,yok,var,var,yok,yok,yok,kademe_5,kotu,kotu,bilinmiyor,300_m2_ve_ustu,6_oda,orta_4_7_kat,2_banyo,yok,dusuk,yok,dusuk,dusuk,yuksek,yok,7_Bucuk_10_Milyon_TL_Arasi
Erzurum,Palandoken,Satilik,6_10_arasi,5,Merkezi,bilinmiyor,yok,yok,var,yok,yok,var,var,yok,yok,yok,yok,yok,yok,yok,yok,yok,yok,yok,yok,yok,yok,yok,yok,yok,yok,yok,yok,yok,yok,yok,kademe_5,kotu,kotu,kotu,100_125_m2,4_oda,orta_4_7_kat,2_banyo,yok,yok,yok,dusuk,yok,yok,yok,2_3_Milyon_TL_Arasi
Hatay,Antakya,Satilik,1_5_arasi,1,Kombi_Dogalgaz,bilinmiyor,yok,var,var,yok,yok,var,yok,var,yok,yok,var,yok,yok,yok,yok,yok,yok,yok,yok,yok,yok,yok,yok,yok,yok,var,yok,yok,yok,yok,kademe_5,normal,normal,bilinmiyor,75_100_m2,3_oda,orta_4_7_kat,1_banyo,dusuk,yok,yok,dusuk,dusuk,orta,yok,1_5_2_Milyon_TL_Arasi
Hatay,Iskenderun,Satilik,0,Yuksek_Giris,Kombi,bilinmiyor,yok,yok,var,var,yok,yok,yok,yok,yok,yok,yok,yok,yok,yok,yok,yok,yok,yok,yok,yok,yok,yok,yok,yok,yok,yok,yok,yok,yok,yok,kademe_5,kotu,bilinmiyor,kotu,100_125_m2,4_oda,orta_4_7_kat,1_banyo,yok,yok,yok,dusuk,yok,yok,yok,3_4_Milyon_TL_Arasi
Yozgat,Merkez,Satilik,16_20_arasi,1,Kombi,bilinmiyor,yok,var,var,var,yok,yok,yok,yok,yok,yok,var,yok,yok,yok,yok,yok,yok,yok,yok,yok,yok,yok,var,yok,yok,var,yok,yok,yok,yok,kademe_5,kotu,kotu,bilinmiyor,125_150_m2,4_oda,yuksek_8_15_kat,1_banyo,orta,yok,dusuk,orta,dusuk,orta,yok,2_3_Milyon_TL_Arasi
Tokat,Niksar,Satilik,1_5_arasi,4,Kombi_Dogalgaz,bilinmiyor,yok,var,var,var,yok,yok,var,var,yok,yok,var,yok,yok,var,yok,yok,yok,yok,yok,yok,yok,yok,var,yok,yok,var,yok,yok,yok,yok,kademe_5,normal,normal,bilinmiyor,50_75_m2,2_oda,orta_4_7_kat,1_banyo,orta,yok,dusuk,orta,orta,yuksek,yok,2_3_Milyon_TL_Arasi
Erzurum,Palandoken,Satilik,11_15_arasi,5,Merkezi,bilinmiyor,yok,yok,var,yok,yok,var,var,yok,yok,yok,yok,yok,yok,yok,yok,yok,yok,yok,yok,yok,yok,yok,yok,yok,yok,yok,yok,yok,yok,yok,kademe_5,normal,normal,kotu,125_150_m2,4_oda,orta_4_7_kat,2_banyo,yok,yok,yok,dusuk,yok,yok,yok,2_3_Milyon_TL_Arasi
Hatay,Iskenderun,Satilik,26_30_arasi,3,Klima,bilinmiyor,yok,yok,yok,yok,yok,var,var,yok,yok,yok,var,yok,yok,yok,yok,yok,yok,yok,yok,yok,yok,var,yok,yok,yok,var,yok,yok,yok,yok,kademe_5,normal,normal,normal,100_125_m2,3_oda,alcak_1_3_kat,1_banyo,yok,yok,yok,orta,orta,dusuk,yok,1_5_2_Milyon_TL_Arasi
Yozgat,Merkez,Satilik,0,Yuksek_Giris,Kombi,bilinmiyor,yok,var,yok,var,yok,var,var,yok,yok,yok,yok,yok,yok,yok,yok,yok,yok,yok,yok,yok,yok,yok,yok,yok,yok,var,yok,yok,yok,yok,kademe_5,normal,normal,bilinmiyor,100_125_m2,4_oda,orta_4_7_kat,1_banyo,dusuk,dusuk,yok,dusuk,orta,yuksek,yok,2_3_Milyon_TL_Arasi
Hatay,Iskenderun,Satilik,1_5_arasi,5,isitma_yok,bilinmiyor,yok,var,var,yok,yok,yok,yok,yok,yok,yok,yok,yok,yok,yok,yok,yok,yok,yok,yok,yok,yok,yok,yok,yok,yok,yok,yok,yok,var,yok,kademe_5,normal,kotu,normal,200_300_m2,5_oda,orta_4_7_kat,2_banyo,yok,yok,yok,dusuk,yok,yok,yok,5_7_Bucuk_Milyon_TL_Arasi
Hatay,Payas,Satilik,1_5_arasi,3,Kombi,bilinmiyor,yok,var,var,var,yok,yok,var,var,var,yok,var,var,yok,var,yok,yok,yok,yok,yok,yok,yok,var,var,yok,yok,yok,yok,yok,yok,yok,kademe_5,normal,iyi,bilinmiyor,125_150_m2,4_oda,orta_4_7_kat,2_banyo,dusuk,dusuk,dusuk,dusuk,dusuk,yuksek,yok,3_4_Milyon_TL_Arasi
Kahramanmaras,Onikisubat,Satilik,26_30_arasi,1,Kombi,bilinmiyor,yok,var,var,var,yok,yok,yok,var,var,yok,yok,yok,yok,yok,yok,yok,yok,yok,yok,yok,yok,yok,yok,yok,yok,var,yok,yok,yok,yok,kademe_5,kotu,kotu,bilinmiyor,125_150_m2,4_oda,orta_4_7_kat,1_banyo,yok,yok,yok,orta,yuksek,orta,yok,2_3_Milyon_TL_Arasi
Hatay,Antakya,Satilik,6_10_arasi,2,Klima,bilinmiyor,yok,var,yok,var,var,yok,var,yok,var,yok,var,yok,yok,yok,yok,yok,yok,yok,yok,yok,yok,yok,var,yok,yok,var,yok,yok,yok,yok,kademe_5,kotu,kotu,bilinmiyor,75_100_m2,3_oda,orta_4_7_kat,1_banyo,yok,yok,dusuk,orta,orta,yuksek,yok,1_5_Milyon_TL_Alti
Erzurum,Palandoken,Satilik,21_25_arasi,Bodrum,Kombi_Dogalgaz,bilinmiyor,yok,yok,yok,yok,yok,var,var,yok,yok,yok,yok,yok,yok,yok,yok,yok,yok,yok,yok,yok,yok,yok,yok,yok,yok,yok,yok,yok,yok,yok,kademe_5,kotu,normal,kotu,125_150_m2,4_oda,orta_4_7_kat,1_banyo,yok,yok,yok,dusuk,yok,yok,yok,1_5_Milyon_TL_Alti
Kahramanmaras,Dulkadiroglu,Satilik,6_10_arasi,1,Kombi,bilinmiyor,yok,var,yok,var,yok,yok,yok,yok,yok,yok,yok,yok,yok,yok,yok,yok,yok,yok,yok,yok,yok,yok,yok,yok,yok,var,yok,yok,yok,yok,kademe_5,normal,iyi,kotu,100_125_m2,3_oda,orta_4_7_kat,2_banyo,yok,yok,yok,dusuk,dusuk,dusuk,yok,1_5_2_Milyon_TL_Arasi
Tokat,Niksar,Satilik,0,5,Kombi,bilinmiyor,yok,var,yok,yok,yok,yok,yok,var,yok,yok,yok,yok,yok,yok,yok,yok,yok,yok,yok,yok,yok,yok,yok,yok,yok,yok,yok,yok,yok,yok,kademe_5,iyi,bilinmiyor,bilinmiyor,75_100_m2,2_oda,orta_4_7_kat,1_banyo,yok,yok,yok,dusuk,yok,yok,yok,3_4_Milyon_TL_Arasi
Erzurum,Horasan,Satilik,16_20_arasi,1,bilinmiyor,bilinmiyor,yok,yok,yok,yok,yok,yok,yok,yok,yok,yok,yok,yok,yok,yok,yok,yok,yok,yok,yok,yok,yok,yok,yok,yok,yok,yok,yok,yok,yok,yok,kademe_5,bilinmiyor,bilinmiyor,bilinmiyor,75_100_m2,2_oda,alcak_1_3_kat,1_banyo,yok,yok,yok,dusuk,yok,yok,yok,1_5_Milyon_TL_Alti
Hatay,Arsuz,Satilik,1_5_arasi,2,Klima,bilinmiyor,yok,var,yok,var,yok,yok,yok,yok,yok,yok,var,yok,yok,var,yok,yok,yok,yok,yok,yok,yok,var,var,yok,yok,var,yok,yok,yok,yok,kademe_5,normal,normal,normal,0_50_m2,2_oda,orta_4_7_kat,1_banyo,yok,yok,dusuk,yok,orta,yuksek,yok,2_3_Milyon_TL_Arasi
Hatay,Iskenderun,Satilik,21_25_arasi,1,Klima,bilinmiyor,yok,var,yok,var,yok,yok,var,var,yok,yok,var,yok,yok,yok,yok,yok,yok,yok,yok,yok,yok,yok,yok,yok,yok,var,yok,yok,yok,yok,kademe_5,normal,kotu,bilinmiyor,100_125_m2,4_oda,orta_4_7_kat,1_banyo,yok,yok,yok,orta,orta,orta,yok,2_3_Milyon_TL_Arasi
Tokat,Turhal,Satilik,11_15_arasi,1,Kombi_Dogalgaz,bilinmiyor,yok,var,var,var,yok,yok,var,var,yok,yok,yok,yok,yok,yok,yok,yok,yok,var,yok,yok,yok,yok,var,yok,yok,var,yok,yok,yok,yok,kademe_5,kotu,normal,bilinmiyor,125_150_m2,4_oda,orta_4_7_kat,1_banyo,yok,yok,yok,dusuk,dusuk,yuksek,yok,4_5_Milyon_TL_Arasi
Tokat,Merkez,Satilik,0,5,Kombi,bilinmiyor,yok,var,var,var,yok,var,yok,var,yok,yok,yok,yok,yok,yok,yok,yok,yok,yok,yok,yok,yok,yok,yok,yok,yok,yok,yok,yok,yok,yok,kademe_5,bilinmiyor,normal,bilinmiyor,0_50_m2,2_oda,orta_4_7_kat,1_banyo,yok,yok,yok,dusuk,yok,yok,yok,2_3_Milyon_TL_Arasi
Hatay,Arsuz,Satilik,0,Ara_Kat,Klima,bilinmiyor,yok,var,yok,yok,yok,yok,var,var,yok,yok,var,yok,yok,var,yok,yok,yok,yok,yok,yok,yok,yok,yok,yok,yok,yok,yok,yok,yok,yok,kademe_5,kotu,bilinmiyor,iyi,50_75_m2,2_oda,orta_4_7_kat,1_banyo,yok,yok,yok,dusuk,yok,orta,yok,2_3_Milyon_TL_Arasi
Hatay,Antakya,Satilik,11_15_arasi,6,Merkezi,bilinmiyor,yok,var,var,var,yok,yok,var,yok,var,yok,var,yok,yok,yok,yok,yok,yok,yok,yok,yok,yok,yok,yok,yok,yok,var,yok,yok,yok,yok,kademe_5,kotu,kotu,bilinmiyor,75_100_m2,3_oda,yuksek_8_15_kat,1_banyo,dusuk,dusuk,yok,dusuk,yok,yuksek,yok,1_5_2_Milyon_TL_Arasi
Hatay,Dortyol,Satilik,26_30_arasi,2,isitma_yok,bilinmiyor,yok,var,yok,yok,yok,var,yok,yok,yok,yok,yok,yok,yok,yok,yok,yok,yok,yok,yok,yok,yok,yok,yok,yok,yok,yok,yok,yok,yok,yok,kademe_5,normal,bilinmiyor,kotu,100_125_m2,3_oda,orta_4_7_kat,1_banyo,yok,yok,yok,dusuk,yok,yok,yok,1_5_2_Milyon_TL_Arasi
Hatay,Defne,Satilik,31_ve_uzeri,2,Kombi_Dogalgaz,bilinmiyor,yok,var,yok,var,yok,yok,var,var,yok,yok,yok,yok,yok,yok,yok,yok,yok,yok,yok,yok,yok,yok,yok,yok,yok,yok,var,yok,yok,yok,kademe_5,normal,iyi,bilinmiyor,200_300_m2,7_oda_ve_ustu,orta_4_7_kat,3_banyo_ve_ustu,yok,yok,yok,dusuk,yok,yok,yok,5_7_Bucuk_Milyon_TL_Arasi
Hatay,Belen,Satilik,0,2,isitma_yok,bilinmiyor,yok,var,var,yok,yok,yok,yok,yok,yok,yok,yok,yok,yok,yok,yok,yok,yok,yok,yok,yok,yok,yok,var,yok,yok,yok,yok,yok,yok,yok,kademe_5,bilinmiyor,bilinmiyor,bilinmiyor,100_125_m2,3_oda,orta_4_7_kat,1_banyo,yok,yok,yok,dusuk,yok,yok,yok,2_3_Milyon_TL_Arasi
Tokat,Merkez,Satilik,26_30_arasi,bilinmiyor,Soba,bilinmiyor,yok,var,yok,var,yok,var,var,yok,var,yok,yok,yok,yok,yok,yok,yok,yok,yok,yok,yok,yok,yok,yok,yok,yok,var,yok,yok,yok,yok,kademe_5,bilinmiyor,kotu,bilinmiyor,50_75_m2,6_oda,alcak_1_3_kat,1_banyo,yok,yok,yok,dusuk,yok,dusuk,yok,2_3_Milyon_TL_Arasi
Hatay,Belen,Satilik,1_5_arasi,Giris,Kombi,bilinmiyor,yok,var,var,var,yok,var,var,var,yok,yok,yok,yok,yok,yok,yok,yok,yok,yok,yok,yok,yok,yok,var,yok,yok,yok,yok,yok,yok,var,kademe_5,iyi,normal,bilinmiyor,75_100_m2,3_oda,orta_4_7_kat,1_banyo,yok,yok,yok,dusuk,dusuk,dusuk,yok,1_5_2_Milyon_TL_Arasi
Hatay,Payas,Satilik,1_5_arasi,5,Merkezi,bilinmiyor,yok,yok,var,var,yok,yok,yok,yok,yok,yok,var,yok,yok,yok,yok,yok,yok,yok,yok,yok,yok,var,var,yok,yok,var,yok,yok,yok,yok,kademe_5,iyi,kotu,iyi,125_150_m2,2_oda,yuksek_8_15_kat,bilinmiyor,dusuk,yok,yok,dusuk,yok,orta,yok,3_4_Milyon_TL_Arasi
Hatay,Dortyol,Satilik,6_10_arasi,4,Kombi_Dogalgaz,bilinmiyor,yok,var,var,var,yok,var,var,var,yok,yok,var,var,yok,yok,yok,yok,yok,yok,yok,yok,yok,yok,var,yok,yok,var,yok,yok,yok,yok,kademe_5,normal,kotu,normal,150_200_m2,4_oda,orta_4_7_kat,2_banyo,dusuk,dusuk,yok,dusuk,dusuk,yuksek,yok,4_5_Milyon_TL_Arasi
Kahramanmaras,Onikisubat,Satilik,11_15_arasi,Bahce,Kombi,bilinmiyor,yok,var,yok,yok,yok,yok,var,var,var,yok,var,yok,yok,yok,yok,yok,yok,yok,yok,yok,yok,yok,var,yok,yok,var,yok,yok,yok,yok,kademe_5,kotu,normal,bilinmiyor,150_200_m2,4_oda,bilinmiyor,1_banyo,yok,dusuk,yok,orta,yuksek,orta,yok,2_3_Milyon_TL_Arasi
Hatay,Defne,Satilik,1_5_arasi,2,Kombi,bilinmiyor,yok,var,var,var,yok,yok,var,var,yok,yok,var,yok,yok,yok,yok,yok,yok,yok,yok,yok,yok,yok,var,yok,yok,yok,yok,yok,yok,yok,kademe_5,normal,normal,kotu,100_125_m2,3_oda,orta_4_7_kat,1_banyo,dusuk,yok,yok,orta,orta,dusuk,yok,1_5_2_Milyon_TL_Arasi
Hatay,Iskenderun,Satilik,6_10_arasi,Zemin,Kombi,bilinmiyor,yok,var,var,var,yok,var,var,yok,var,yok,var,var,yok,yok,yok,yok,yok,yok,yok,yok,yok,yok,var,yok,yok,yok,yok,yok,yok,yok,kademe_5,iyi,normal,bilinmiyor,125_150_m2,4_oda,orta_4_7_kat,2_banyo,yok,yok,dusuk,dusuk,yuksek,orta,yok,3_4_Milyon_TL_Arasi
Hatay,Dortyol,Satilik,26_30_arasi,3,Klima,bilinmiyor,yok,var,yok,var,yok,var,var,var,yok,yok,yok,var,yok,yok,yok,yok,yok,yok,yok,yok,yok,yok,var,yok,yok,var,yok,yok,yok,yok,kademe_5,iyi,bilinmiyor,bilinmiyor,150_200_m2,4_oda,orta_4_7_kat,2_banyo,yok,yok,dusuk,orta,yuksek,orta,yok,2_3_Milyon_TL_Arasi
Hatay,Iskenderun,Satilik,0,Yuksek_Giris,isitma_yok_dogalgaz,bilinmiyor,yok,var,var,var,yok,var,var,var,yok,yok,var,yok,yok,yok,yok,yok,yok,yok,yok,yok,yok,yok,yok,yok,yok,var,yok,yok,yok,yok,kademe_5,bilinmiyor,bilinmiyor,bilinmiyor,125_150_m2,4_oda,orta_4_7_kat,1_banyo,yok,dusuk,yok,dusuk,dusuk,orta,yok,3_4_Milyon_TL_Arasi
Tokat,Merkez,Satilik,1_5_arasi,12,Merkezi,bilinmiyor,yok,yok,var,var,var,yok,yok,yok,yok,yok,yok,yok,yok,yok,yok,yok,yok,yok,yok,yok,yok,yok,yok,yok,yok,yok,yok,yok,yok,yok,kademe_5,normal,normal,normal,50_75_m2,2_oda,cok_yuksek_16_ustu_kat,1_banyo,yok,yok,yok,dusuk,yok,yok,yok,1_5_2_Milyon_TL_Arasi
Hatay,Dortyol,Satilik,1_5_arasi,bilinmiyor,Klima,bilinmiyor,yok,yok,yok,yok,yok,var,var,var,var,yok,yok,yok,yok,yok,yok,yok,yok,yok,yok,yok,yok,yok,yok,yok,yok,yok,yok,yok,yok,yok,kademe_5,normal,kotu,bilinmiyor,125_150_m2,3_oda,alcak_1_3_kat,1_banyo,yok,yok,yok,dusuk,yok,dusuk,yok,7_Bucuk_10_Milyon_TL_Arasi
Nigde,Merkez,Satilik,31_ve_uzeri,5,Kombi,bilinmiyor,yok,var,var,var,yok,yok,var,var,yok,yok,yok,yok,yok,yok,yok,yok,yok,yok,yok,yok,yok,yok,yok,yok,yok,var,yok,yok,yok,yok,kademe_5,bilinmiyor,bilinmiyor,bilinmiyor,125_150_m2,3_oda,orta_4_7_kat,1_banyo,yok,yok,dusuk,dusuk,orta,yok,yok,2_3_Milyon_TL_Arasi
Tokat,Niksar,Satilik,6_10_arasi,Ara_Kat,Dogalgaz_Sobasi,bilinmiyor,yok,var,var,yok,yok,var,yok,var,yok,yok,var,var,yok,var,yok,yok,yok,var,yok,yok,yok,yok,var,yok,yok,var,yok,yok,yok,yok,kademe_5,normal,normal,normal,150_200_m2,5_oda,orta_4_7_kat,bilinmiyor,yok,yok,yok,orta,orta,yuksek,yok,4_5_Milyon_TL_Arasi
Hatay,Iskenderun,Satilik,6_10_arasi,5,Klima,bilinmiyor,yok,yok,var,var,var,var,var,var,var,yok,var,yok,yok,yok,yok,yok,yok,yok,yok,yok,yok,yok,yok,yok,yok,yok,yok,yok,yok,yok,kademe_5,kotu,normal,kotu,0_50_m2,2_oda,orta_4_7_kat,1_banyo,yok,yok,yok,dusuk,yok,yuksek,yok,1_5_2_Milyon_TL_Arasi
Tokat,Niksar,Satilik,0,5,Yerden_Isitma,bilinmiyor,yok,var,yok,yok,yok,yok,var,var,yok,yok,yok,yok,yok,yok,yok,yok,yok,yok,yok,yok,yok,yok,yok,yok,yok,yok,yok,yok,yok,yok,kademe_5,normal,normal,bilinmiyor,100_125_m2,3_oda,orta_4_7_kat,2_banyo,yok,yok,yok,dusuk,yok,yok,yok,4_5_Milyon_TL_Arasi
Tokat,Merkez,Satilik,1_5_arasi,2,Kombi,bilinmiyor,yok,yok,yok,var,var,yok,var,var,yok,yok,var,yok,yok,var,yok,yok,yok,yok,yok,yok,yok,yok,yok,yok,yok,var,yok,yok,yok,yok,kademe_5,normal,iyi,kotu,0_50_m2,2_oda,orta_4_7_kat,1_banyo,dusuk,yok,dusuk,dusuk,yuksek,yuksek,yok,2_3_Milyon_TL_Arasi
Hatay,Dortyol,Satilik,11_15_arasi,1,isitma_yok,bilinmiyor,yok,var,yok,yok,var,yok,yok,yok,yok,yok,yok,yok,yok,yok,yok,yok,yok,yok,yok,yok,yok,yok,yok,yok,yok,yok,yok,yok,yok,yok,kademe_5,bilinmiyor,bilinmiyor,bilinmiyor,150_200_m2,5_oda,alcak_1_3_kat,2_banyo,yok,yok,yok,dusuk,yok,dusuk,yok,7_Bucuk_10_Milyon_TL_Arasi
Hatay,Antakya,Satilik,0,3,Kombi_Dogalgaz,bilinmiyor,yok,var,var,var,yok,var,var,yok,var,yok,var,yok,yok,var,yok,yok,yok,yok,yok,yok,yok,yok,var,yok,yok,var,yok,yok,yok,yok,kademe_5,bilinmiyor,normal,bilinmiyor,100_125_m2,3_oda,orta_4_7_kat,1_banyo,dusuk,dusuk,yok,orta,orta,yuksek,yok,2_3_Milyon_TL_Arasi
Kahramanmaras,Onikisubat,Satilik,0,6,Merkezi,bilinmiyor,yok,var,var,var,yok,var,var,var,var,yok,var,var,yok,var,var,yok,yok,yok,var,yok,yok,yok,var,var,yok,var,yok,yok,yok,yok,kademe_5,kotu,normal,bilinmiyor,300_m2_ve_ustu,7_oda_ve_ustu,orta_4_7_kat,3_banyo_ve_ustu,dusuk,orta,dusuk,dusuk,yok,yuksek,yok,10_Milyon_TL_Ustu
Hatay,Iskenderun,Satilik,11_15_arasi,4,Kombi_Dogalgaz,bilinmiyor,yok,yok,var,yok,yok,yok,yok,yok,yok,yok,yok,yok,yok,yok,yok,yok,yok,yok,yok,yok,yok,yok,yok,yok,yok,yok,yok,yok,yok,yok,kademe_5,normal,normal,normal,125_150_m2,4_oda,orta_4_7_kat,1_banyo,yok,yok,yok,dusuk,yok,yok,yok,3_4_Milyon_TL_Arasi
Hatay,Arsuz,Satilik,1_5_arasi,Ara_Kat,bilinmiyor,bilinmiyor,yok,yok,yok,yok,yok,yok,yok,yok,yok,yok,yok,yok,yok,yok,yok,yok,yok,yok,yok,yok,yok,yok,yok,yok,yok,yok,yok,yok,yok,yok,kademe_5,iyi,bilinmiyor,bilinmiyor,150_200_m2,4_oda,yuksek_8_15_kat,2_banyo,yok,yok,yok,dusuk,yok,yok,yok,5_7_Bucuk_Milyon_TL_Arasi
Bartin,Merkez,Satilik,6_10_arasi,2,Kombi,bilinmiyor,yok,var,var,var,yok,yok,yok,var,yok,yok,var,yok,yok,var,yok,yok,yok,yok,yok,yok,yok,yok,var,yok,yok,var,yok,yok,yok,yok,kademe_5,normal,iyi,bilinmiyor,50_75_m2,2_oda,orta_4_7_kat,1_banyo,yok,yok,dusuk,dusuk,yuksek,dusuk,yok,1_5_2_Milyon_TL_Arasi
Hatay,Iskenderun,Satilik,11_15_arasi,2,Kombi,bilinmiyor,yok,var,var,var,yok,yok,var,var,yok,yok,yok,yok,yok,yok,yok,yok,yok,yok,yok,yok,yok,yok,yok,yok,yok,yok,yok,yok,yok,yok,kademe_5,normal,bilinmiyor,bilinmiyor,150_200_m2,4_oda,orta_4_7_kat,1_banyo,yok,yok,yok,dusuk,yok,yok,yok,3_4_Milyon_TL_Arasi
Hatay,Dortyol,Satilik,21_25_arasi,4,Kombi,bilinmiyor,yok,var,var,yok,yok,var,yok,var,var,yok,var,yok,yok,yok,yok,yok,yok,yok,yok,yok,yok,yok,yok,yok,yok,var,yok,yok,yok,yok,kademe_5,normal,bilinmiyor,bilinmiyor,150_200_m2,4_oda,orta_4_7_kat,1_banyo,dusuk,dusuk,dusuk,dusuk,orta,orta,yok,2_3_Milyon_TL_Arasi
Tokat,Niksar,Satilik,0,2,Yerden_Isitma,bilinmiyor,yok,var,yok,yok,yok,yok,yok,yok,var,yok,yok,yok,yok,yok,yok,yok,yok,yok,yok,yok,yok,yok,yok,yok,yok,yok,yok,yok,yok,yok,kademe_5,normal,iyi,iyi,100_125_m2,3_oda,orta_4_7_kat,1_banyo,yok,yok,yok,dusuk,yok,yok,yok,3_4_Milyon_TL_Arasi
Tokat,Merkez,Satilik,16_20_arasi,Bahce,Kombi,bilinmiyor,yok,var,yok,var,yok,yok,var,var,yok,yok,yok,yok,yok,yok,yok,yok,yok,yok,yok,yok,yok,yok,yok,yok,yok,yok,yok,yok,yok,var,kademe_5,normal,normal,bilinmiyor,300_m2_ve_ustu,7_oda_ve_ustu,orta_4_7_kat,2_banyo,yok,yok,yok,yok,yok,yok,yok,10_Milyon_TL_Ustu
Hatay,Yayladagi,Satilik,1_5_arasi,1,Kombi,bilinmiyor,yok,var,var,var,yok,var,var,var,yok,yok,yok,yok,yok,yok,yok,yok,yok,yok,yok,yok,yok,yok,var,yok,yok,yok,yok,yok,yok,yok,kademe_5,iyi,normal,bilinmiyor,125_150_m2,4_oda,orta_4_7_kat,1_banyo,yok,yok,yok,dusuk,orta,yok,yok,2_3_Milyon_TL_Arasi
Hatay,Iskenderun,Satilik,31_ve_uzeri,En_Ust_Kat,Klima,bilinmiyor,yok,var,var,yok,yok,yok,yok,yok,var,yok,yok,yok,yok,yok,yok,yok,yok,yok,yok,yok,yok,var,yok,yok,yok,var,yok,yok,yok,yok,kademe_5,normal,normal,kotu,150_200_m2,4_oda,orta_4_7_kat,2_banyo,dusuk,yok,yok,dusuk,orta,yuksek,yok,2_3_Milyon_TL_Arasi
Nigde,Bor,Satilik,0,bilinmiyor,Kombi_Dogalgaz,bilinmiyor,yok,yok,yok,var,yok,var,var,var,var,yok,var,yok,yok,var,yok,yok,yok,yok,yok,yok,yok,yok,var,yok,yok,yok,yok,yok,yok,yok,kademe_5,bilinmiyor,bilinmiyor,bilinmiyor,100_125_m2,3_oda,alcak_1_3_kat,1_banyo,yok,yok,yok,dusuk,yok,orta,yok,5_7_Bucuk_Milyon_TL_Arasi
Osmaniye,Merkez,Satilik,0,2,Yerden_Isitma,bilinmiyor,yok,var,var,yok,yok,yok,yok,yok,yok,yok,yok,yok,yok,yok,yok,yok,yok,yok,yok,yok,yok,yok,yok,yok,yok,yok,yok,yok,yok,yok,kademe_5,iyi,iyi,normal,100_125_m2,3_oda,yuksek_8_15_kat,1_banyo,yok,yok,yok,dusuk,yok,yok,yok,2_3_Milyon_TL_Arasi
Osmaniye,Duzici,Satilik,1_5_arasi,Yuksek_Giris,Kombi,bilinmiyor,yok,yok,yok,yok,yok,var,var,var,var,yok,var,yok,yok,yok,yok,yok,yok,yok,yok,yok,yok,yok,var,yok,yok,yok,yok,yok,yok,yok,kademe_5,iyi,bilinmiyor,bilinmiyor,50_75_m2,3_oda,orta_4_7_kat,1_banyo,yok,dusuk,yok,dusuk,orta,orta,yok,1_5_Milyon_TL_Alti
Tokat,Merkez,Satilik,0,2,Kombi,bilinmiyor,yok,yok,var,var,yok,yok,var,yok,var,yok,var,yok,yok,yok,yok,yok,yok,yok,yok,yok,yok,yok,yok,yok,yok,var,yok,yok,yok,yok,kademe_5,bilinmiyor,bilinmiyor,bilinmiyor,50_75_m2,2_oda,orta_4_7_kat,1_banyo,yok,yok,yok,dusuk,dusuk,yok,yok,2_3_Milyon_TL_Arasi
Tokat,Merkez,Satilik,6_10_arasi,2,Kombi,bilinmiyor,yok,var,var,var,yok,var,yok,yok,yok,yok,var,yok,yok,var,yok,yok,yok,yok,yok,yok,yok,yok,yok,yok,yok,var,yok,yok,yok,yok,kademe_5,normal,bilinmiyor,iyi,75_100_m2,2_oda,orta_4_7_kat,1_banyo,yok,yok,yok,dusuk,orta,yuksek,yok,3_4_Milyon_TL_Arasi
Kahramanmaras,Onikisubat,Satilik,0,2,Kombi,bilinmiyor,yok,var,yok,var,yok,yok,var,var,var,yok,var,var,yok,var,yok,yok,yok,yok,yok,yok,yok,yok,yok,yok,yok,var,yok,yok,yok,yok,kademe_5,iyi,normal,bilinmiyor,150_200_m2,5_oda,yuksek_8_15_kat,2_banyo,yok,yok,dusuk,dusuk,yuksek,yuksek,yok,3_4_Milyon_TL_Arasi
Hatay,Antakya,Satilik,16_20_arasi,Yuksek_Giris,Kombi_Dogalgaz,bilinmiyor,yok,var,var,yok,yok,yok,var,var,yok,yok,var,yok,yok,yok,yok,yok,yok,yok,yok,yok,yok,yok,yok,yok,yok,yok,yok,yok,yok,yok,kademe_5,iyi,kotu,bilinmiyor,125_150_m2,4_oda,orta_4_7_kat,1_banyo,yok,yok,yok,dusuk,yok,dusuk,yok,1_5_2_Milyon_TL_Arasi
Hatay,Dortyol,Satilik,26_30_arasi,2,Kombi,bilinmiyor,yok,var,var,var,yok,var,var,yok,var,yok,yok,var,yok,yok,yok,yok,yok,yok,yok,yok,yok,yok,yok,yok,yok,yok,yok,yok,yok,yok,kademe_5,iyi,normal,bilinmiyor,125_150_m2,4_oda,orta_4_7_kat,1_banyo,yok,yok,yok,dusuk,orta,orta,yok,2_3_Milyon_TL_Arasi
Hatay,Iskenderun,Satilik,11_15_arasi,5,Kombi_Dogalgaz,bilinmiyor,yok,var,var,yok,yok,var,yok,var,yok,yok,var,var,yok,var,yok,yok,yok,yok,yok,yok,yok,yok,yok,yok,yok,var,yok,yok,yok,yok,kademe_5,bilinmiyor,normal,bilinmiyor,150_200_m2,4_oda,yuksek_8_15_kat,2_banyo,dusuk,yok,yok,orta,dusuk,yuksek,yok,4_5_Milyon_TL_Arasi
Hatay,Reyhanli,Satilik,11_15_arasi,Kot_3,Klima,bilinmiyor,yok,yok,yok,yok,yok,yok,var,var,yok,yok,yok,yok,yok,yok,yok,yok,yok,var,yok,yok,yok,yok,var,yok,yok,var,yok,yok,yok,yok,kademe_5,normal,normal,kotu,75_100_m2,3_oda,orta_4_7_kat,1_banyo,dusuk,yok,yok,dusuk,orta,dusuk,yok,1_5_Milyon_TL_Alti
Hatay,Antakya,Satilik,11_15_arasi,3,Merkezi,bilinmiyor,yok,var,var,var,yok,var,yok,var,yok,yok,var,yok,yok,var,yok,yok,yok,yok,yok,yok,yok,yok,yok,yok,yok,var,yok,yok,yok,yok,kademe_5,normal,bilinmiyor,normal,75_100_m2,3_oda,yuksek_8_15_kat,1_banyo,dusuk,dusuk,dusuk,orta,yuksek,yuksek,yok,1_5_2_Milyon_TL_Arasi
Erzurum,Yakutiye,Satilik,0,2,Merkezi,bilinmiyor,yok,var,var,var,yok,var,yok,var,yok,yok,var,var,yok,yok,yok,yok,yok,yok,yok,yok,yok,yok,yok,yok,yok,var,yok,yok,yok,yok,kademe_5,iyi,iyi,bilinmiyor,200_300_m2,5_oda,yuksek_8_15_kat,2_banyo,dusuk,dusuk,yok,dusuk,dusuk,yuksek,yok,7_Bucuk_10_Milyon_TL_Arasi
Hatay,Arsuz,Satilik,31_ve_uzeri,Bahce,isitma_yok_elektrik,bilinmiyor,yok,var,var,yok,yok,yok,yok,yok,yok,yok,yok,var,yok,yok,yok,yok,yok,yok,yok,yok,yok,yok,yok,yok,yok,yok,yok,var,yok,yok,kademe_5,bilinmiyor,bilinmiyor,bilinmiyor,200_300_m2,4_oda,alcak_1_3_kat,2_banyo,yok,dusuk,yok,dusuk,yok,orta,yok,10_Milyon_TL_Ustu
Hatay,Arsuz,Satilik,0,3,Klima,bilinmiyor,yok,var,var,var,yok,yok,yok,yok,yok,yok,yok,yok,yok,yok,yok,yok,yok,yok,yok,yok,yok,yok,yok,yok,yok,yok,yok,yok,yok,yok,kademe_5,kotu,bilinmiyor,normal,200_300_m2,4_oda,orta_4_7_kat,3_banyo_ve_ustu,yok,yok,yok,dusuk,yok,dusuk,yok,5_7_Bucuk_Milyon_TL_Arasi
Hatay,Belen,Satilik,1_5_arasi,2,Kombi_Dogalgaz,bilinmiyor,yok,var,var,yok,yok,var,var,var,var,yok,var,yok,yok,yok,yok,yok,yok,yok,yok,yok,yok,yok,yok,yok,yok,yok,yok,yok,yok,yok,kademe_5,bilinmiyor,normal,normal,150_200_m2,4_oda,orta_4_7_kat,2_banyo,yok,yok,yok,dusuk,yok,dusuk,yok,4_5_Milyon_TL_Arasi
Kahramanmaras,Afsin,Satilik,6_10_arasi,Zemin,Kombi,bilinmiyor,yok,yok,yok,yok,yok,yok,yok,yok,yok,yok,yok,yok,yok,yok,yok,yok,yok,yok,yok,yok,yok,yok,yok,yok,yok,yok,yok,yok,yok,yok,kademe_5,normal,normal,bilinmiyor,150_200_m2,5_oda,yuksek_8_15_kat,1_banyo,yok,yok,yok,dusuk,yok,yok,yok,2_3_Milyon_TL_Arasi
Nigde,Merkez,Satilik,1_5_arasi,Zemin,Kombi_Dogalgaz,bilinmiyor,yok,var,var,var,yok,var,yok,yok,var,yok,var,yok,yok,var,yok,yok,yok,yok,yok,yok,yok,yok,yok,yok,yok,var,yok,yok,yok,yok,kademe_5,bilinmiyor,bilinmiyor,bilinmiyor,50_75_m2,2_oda,orta_4_7_kat,1_banyo,dusuk,dusuk,yok,dusuk,orta,yuksek,yok,2_3_Milyon_TL_Arasi
Hatay,Payas,Satilik,1_5_arasi,4,isitma_yok,bilinmiyor,yok,var,var,yok,yok,yok,yok,var,var,yok,var,var,yok,yok,yok,yok,yok,yok,yok,yok,yok,yok,yok,yok,yok,var,yok,yok,yok,yok,kademe_5,iyi,normal,bilinmiyor,100_125_m2,4_oda,orta_4_7_kat,2_banyo,yok,yok,dusuk,orta,orta,yok,yok,2_3_Milyon_TL_Arasi
Tokat,Merkez,Satilik,6_10_arasi,3,Kombi_Dogalgaz,bilinmiyor,yok,var,var,yok,yok,yok,yok,yok,var,yok,var,yok,yok,yok,yok,yok,yok,yok,yok,yok,yok,yok,yok,yok,yok,yok,yok,yok,yok,yok,kademe_5,iyi,iyi,normal,200_300_m2,6_oda,orta_4_7_kat,2_banyo,yok,yok,yok,yok,yok,orta,yok,5_7_Bucuk_Milyon_TL_Arasi
Tokat,Niksar,Satilik,0,Ara_Kat,Kombi_Dogalgaz,bilinmiyor,yok,var,var,var,yok,yok,yok,var,yok,yok,var,yok,yok,var,yok,yok,yok,yok,yok,yok,yok,yok,yok,yok,yok,yok,yok,yok,yok,yok,kademe_5,normal,normal,normal,100_125_m2,2_oda,orta_4_7_kat,1_banyo,yok,yok,yok,dusuk,dusuk,orta,yok,3_4_Milyon_TL_Arasi
Hatay,Arsuz,Satilik,6_10_arasi,4,Kombi,bilinmiyor,yok,var,var,var,yok,var,var,var,var,yok,var,var,yok,yok,yok,yok,yok,yok,var,yok,yok,yok,var,yok,yok,yok,yok,yok,yok,yok,kademe_5,iyi,normal,bilinmiyor,125_150_m2,4_oda,yuksek_8_15_kat,2_banyo,dusuk,dusuk,yok,orta,orta,orta,yok,4_5_Milyon_TL_Arasi
Erzurum,Palandoken,Satilik,6_10_arasi,3,Merkezi,bilinmiyor,yok,var,var,var,yok,yok,var,var,yok,yok,var,var,yok,yok,yok,yok,yok,yok,yok,yok,yok,yok,yok,yok,yok,var,yok,yok,yok,yok,kademe_5,iyi,iyi,bilinmiyor,200_300_m2,5_oda,yuksek_8_15_kat,2_banyo,yok,dusuk,yok,orta,orta,yuksek,yok,5_7_Bucuk_Milyon_TL_Arasi
Tokat,Merkez,Satilik,6_10_arasi,Yuksek_Giris,Kombi,bilinmiyor,yok,var,yok,var,yok,var,var,yok,yok,yok,var,yok,yok,var,yok,yok,yok,yok,yok,yok,yok,yok,var,yok,yok,yok,yok,yok,yok,yok,kademe_5,bilinmiyor,normal,bilinmiyor,125_150_m2,4_oda,yuksek_8_15_kat,1_banyo,dusuk,yok,dusuk,dusuk,yuksek,yuksek,yok,5_7_Bucuk_Milyon_TL_Arasi
Tokat,Niksar,Satilik,16_20_arasi,bilinmiyor,Soba,bilinmiyor,yok,var,yok,yok,yok,yok,yok,var,yok,yok,yok,yok,yok,yok,yok,yok,yok,yok,yok,yok,yok,yok,yok,yok,yok,yok,yok,yok,yok,yok,kademe_5,kotu,bilinmiyor,bilinmiyor,300_m2_ve_ustu,6_oda,alcak_1_3_kat,2_banyo,yok,yok,yok,dusuk,dusuk,dusuk,yok,1_5_2_Milyon_TL_Arasi
Kahramanmaras,Onikisubat,Satilik,6_10_arasi,4,Kombi,bilinmiyor,yok,var,yok,var,yok,var,yok,yok,var,yok,var,yok,yok,yok,yok,yok,yok,yok,yok,yok,yok,yok,yok,yok,yok,yok,yok,yok,yok,yok,kademe_5,kotu,normal,kotu,200_300_m2,6_oda,yuksek_8_15_kat,2_banyo,dusuk,dusuk,yok,dusuk,orta,orta,yok,4_5_Milyon_TL_Arasi
Hatay,Iskenderun,Satilik,16_20_arasi,2,isitma_yok_elektrik,bilinmiyor,yok,var,yok,yok,yok,yok,yok,yok,yok,yok,var,yok,yok,yok,yok,yok,yok,yok,yok,yok,yok,yok,yok,yok,yok,yok,yok,yok,yok,yok,kademe_5,normal,normal,bilinmiyor,125_150_m2,4_oda,orta_4_7_kat,1_banyo,yok,yok,yok,dusuk,yok,orta,yok,3_4_Milyon_TL_Arasi
Tokat,Zile,Satilik,0,2,Kat_Kaloriferi,bilinmiyor,yok,var,yok,var,var,yok,var,var,yok,yok,var,yok,yok,var,yok,yok,yok,yok,yok,yok,yok,yok,var,yok,yok,yok,yok,yok,yok,yok,kademe_5,bilinmiyor,bilinmiyor,bilinmiyor,300_m2_ve_ustu,7_oda_ve_ustu,alcak_1_3_kat,3_banyo_ve_ustu,yok,yok,yok,dusuk,yok,orta,yok,10_Milyon_TL_Ustu
Hatay,Iskenderun,Satilik,21_25_arasi,2,isitma_yok_elektrik,bilinmiyor,yok,var,var,var,yok,yok,yok,yok,var,yok,yok,yok,yok,yok,yok,yok,yok,yok,yok,yok,yok,yok,yok,yok,yok,yok,yok,yok,yok,yok,kademe_5,normal,kotu,bilinmiyor,100_125_m2,4_oda,alcak_1_3_kat,1_banyo,yok,yok,yok,dusuk,yok,yok,yok,2_3_Milyon_TL_Arasi
Kahramanmaras,Onikisubat,Satilik,6_10_arasi,1,Kombi,bilinmiyor,yok,var,yok,var,yok,yok,var,var,yok,yok,yok,yok,yok,yok,yok,yok,yok,yok,yok,yok,yok,yok,yok,yok,yok,yok,yok,yok,yok,yok,kademe_5,kotu,iyi,bilinmiyor,125_150_m2,4_oda,yuksek_8_15_kat,2_banyo,yok,yok,yok,dusuk,yok,yok,yok,1_5_2_Milyon_TL_Arasi
Hatay,Defne,Satilik,0,2,Kombi,bilinmiyor,yok,yok,yok,var,yok,yok,yok,yok,yok,yok,yok,yok,yok,yok,yok,yok,yok,yok,yok,yok,yok,yok,yok,yok,yok,yok,yok,yok,yok,yok,kademe_5,normal,bilinmiyor,kotu,125_150_m2,4_oda,orta_4_7_kat,1_banyo,yok,yok,yok,dusuk,yok,yok,yok,3_4_Milyon_TL_Arasi
Tokat,Merkez,Satilik,1_5_arasi,5,Kombi,bilinmiyor,yok,var,var,var,var,var,var,var,var,yok,var,yok,yok,var,yok,yok,yok,yok,yok,yok,yok,yok,yok,yok,yok,var,var,yok,yok,yok,kademe_5,kotu,normal,normal,100_125_m2,2_oda,orta_4_7_kat,2_banyo,yok,yok,dusuk,dusuk,yuksek,yuksek,yok,4_5_Milyon_TL_Arasi
Osmaniye,Hasanbeyli,Satilik,1_5_arasi,3,Klima,bilinmiyor,yok,var,yok,var,yok,var,yok,var,var,yok,yok,yok,yok,yok,yok,yok,yok,yok,yok,yok,yok,yok,var,yok,yok,yok,yok,yok,yok,yok,kademe_5,kotu,normal,kotu,125_150_m2,4_oda,orta_4_7_kat,1_banyo,yok,yok,yok,dusuk,yok,orta,yok,2_3_Milyon_TL_Arasi
Tokat,Merkez,Satilik,0,2,Kombi,bilinmiyor,yok,var,var,var,yok,var,yok,var,var,yok,var,yok,yok,var,yok,yok,yok,yok,yok,yok,yok,yok,yok,yok,yok,yok,yok,yok,yok,yok,kademe_5,iyi,kotu,bilinmiyor,50_75_m2,2_oda,orta_4_7_kat,1_banyo,yok,yok,yok,dusuk,dusuk,orta,yok,2_3_Milyon_TL_Arasi
Tokat,Merkez,Satilik,31_ve_uzeri,Yuksek_Giris,Kombi_Dogalgaz,bilinmiyor,yok,var,yok,yok,yok,yok,yok,yok,yok,yok,var,yok,yok,var,yok,yok,yok,yok,yok,yok,yok,yok,yok,yok,yok,yok,yok,yok,yok,yok,kademe_5,kotu,kotu,bilinmiyor,125_150_m2,3_oda,orta_4_7_kat,1_banyo,yok,yok,yok,dusuk,yok,orta,yok,4_5_Milyon_TL_Arasi
Tunceli,Mazgirt,Satilik,6_10_arasi,2,Soba,bilinmiyor,yok,var,yok,var,yok,yok,yok,yok,yok,yok,yok,yok,yok,yok,yok,yok,yok,yok,yok,yok,yok,yok,yok,yok,yok,yok,yok,yok,yok,yok,kademe_5,kotu,bilinmiyor,bilinmiyor,100_125_m2,4_oda,alcak_1_3_kat,1_banyo,yok,yok,yok,dusuk,yok,yok,yok,2_3_Milyon_TL_Arasi
Hatay,Arsuz,Satilik,6_10_arasi,2,Klima,bilinmiyor,yok,var,yok,var,yok,var,var,yok,yok,yok,var,yok,yok,yok,yok,yok,yok,yok,yok,yok,yok,yok,var,yok,yok,yok,yok,yok,yok,yok,kademe_5,iyi,normal,normal,300_m2_ve_ustu,5_oda,alcak_1_3_kat,2_banyo,yok,yok,yok,dusuk,orta,orta,yok,7_Bucuk_10_Milyon_TL_Arasi
Hatay,Dortyol,Satilik,11_15_arasi,4,Kombi_Dogalgaz,bilinmiyor,yok,var,var,var,yok,var,var,yok,var,yok,var,var,yok,var,yok,yok,yok,var,yok,yok,yok,yok,yok,yok,yok,yok,yok,yok,yok,yok,kademe_5,iyi,normal,bilinmiyor,150_200_m2,4_oda,orta_4_7_kat,2_banyo,dusuk,yok,yok,orta,orta,yuksek,yok,3_4_Milyon_TL_Arasi
Tokat,Merkez,Satilik,1_5_arasi,Yuksek_Giris,Yerden_Isitma,bilinmiyor,yok,yok,var,var,var,yok,yok,yok,yok,yok,yok,yok,yok,yok,yok,yok,yok,yok,yok,yok,yok,yok,yok,yok,yok,yok,yok,yok,yok,yok,kademe_5,normal,normal,iyi,50_75_m2,2_oda,orta_4_7_kat,1_banyo,yok,yok,yok,dusuk,yok,yok,yok,2_3_Milyon_TL_Arasi
Hatay,Iskenderun,Satilik,1_5_arasi,11,Kombi_Dogalgaz,bilinmiyor,yok,var,var,var,yok,yok,yok,yok,yok,yok,var,var,yok,var,yok,yok,yok,var,yok,yok,yok,var,yok,yok,yok,var,yok,yok,yok,yok,kademe_5,normal,bilinmiyor,bilinmiyor,150_200_m2,4_oda,yuksek_8_15_kat,2_banyo,dusuk,dusuk,yok,orta,orta,yuksek,yok,5_7_Bucuk_Milyon_TL_Arasi
Tokat,Niksar,Satilik,1_5_arasi,Ara_Kat,Kombi_Dogalgaz,bilinmiyor,yok,var,var,var,yok,yok,yok,yok,yok,yok,var,var,yok,yok,yok,yok,yok,var,yok,yok,yok,yok,yok,yok,yok,var,yok,yok,yok,yok,kademe_5,bilinmiyor,bilinmiyor,bilinmiyor,150_200_m2,3_oda,orta_4_7_kat,2_banyo,dusuk,yok,yok,dusuk,yok,orta,yok,5_7_Bucuk_Milyon_TL_Arasi
Tokat,Niksar,Satilik,11_15_arasi,En_Ust_Kat,Dogalgaz_Sobasi,bilinmiyor,yok,var,var,var,yok,var,yok,var,yok,yok,var,yok,yok,var,yok,yok,yok,var,yok,yok,yok,yok,var,yok,yok,var,yok,yok,yok,yok,kademe_5,normal,kotu,kotu,125_150_m2,4_oda,orta_4_7_kat,1_banyo,yok,yok,yok,orta,orta,orta,yok,3_4_Milyon_TL_Arasi
Tokat,Pazar,Satilik,1_5_arasi,Giris,Kombi_Dogalgaz,bilinmiyor,yok,var,var,var,var,yok,var,yok,yok,yok,var,yok,yok,var,yok,yok,yok,yok,yok,yok,yok,yok,yok,yok,yok,var,yok,yok,yok,yok,kademe_5,kotu,normal,bilinmiyor,50_75_m2,3_oda,orta_4_7_kat,1_banyo,dusuk,yok,yok,dusuk,orta,yuksek,yok,1_5_2_Milyon_TL_Arasi
Erzurum,Yakutiye,Satilik,0,5,Merkezi,bilinmiyor,yok,yok,yok,var,yok,yok,var,var,yok,yok,yok,yok,yok,yok,yok,yok,yok,yok,yok,yok,yok,yok,yok,yok,yok,yok,yok,yok,yok,yok,kademe_5,iyi,iyi,bilinmiyor,75_100_m2,3_oda,orta_4_7_kat,1_banyo,dusuk,yok,yok,yok,yok,yok,yok,2_3_Milyon_TL_Arasi
Hatay,Iskenderun,Satilik,0,3,Klima,bilinmiyor,yok,var,var,yok,yok,yok,var,var,yok,yok,var,yok,yok,var,yok,yok,yok,yok,yok,yok,yok,yok,yok,yok,yok,var,yok,yok,yok,yok,kademe_5,bilinmiyor,bilinmiyor,iyi,0_50_m2,2_oda,orta_4_7_kat,1_banyo,yok,yok,dusuk,orta,yuksek,orta,yok,2_3_Milyon_TL_Arasi
Hatay,Iskenderun,Satilik,0,3,Kombi,bilinmiyor,yok,var,var,var,yok,var,var,var,yok,yok,yok,yok,yok,yok,yok,yok,yok,yok,yok,yok,yok,yok,yok,yok,yok,yok,var,yok,yok,yok,kademe_5,bilinmiyor,iyi,bilinmiyor,200_300_m2,5_oda,orta_4_7_kat,2_banyo,yok,yok,yok,dusuk,yok,yok,yok,10_Milyon_TL_Ustu
Tokat,Niksar,Satilik,0,Giris,Yerden_Isitma,bilinmiyor,yok,var,yok,yok,yok,var,yok,yok,var,yok,yok,yok,yok,yok,yok,yok,yok,yok,yok,yok,yok,yok,yok,yok,yok,yok,yok,yok,yok,yok,kademe_5,kotu,bilinmiyor,kotu,0_50_m2,2_oda,orta_4_7_kat,1_banyo,yok,yok,yok,dusuk,yok,yok,yok,2_3_Milyon_TL_Arasi
Hatay,Arsuz,Satilik,1_5_arasi,2,Klima,bilinmiyor,yok,var,yok,var,var,var,yok,yok,yok,yok,var,var,yok,yok,yok,yok,yok,yok,yok,yok,yok,var,yok,yok,yok,yok,yok,yok,yok,yok,kademe_5,kotu,bilinmiyor,bilinmiyor,75_100_m2,3_oda,orta_4_7_kat,2_banyo,yok,dusuk,yok,dusuk,yok,yuksek,yok,5_7_Bucuk_Milyon_TL_Arasi
Nigde,Merkez,Satilik,1_5_arasi,Kot_1,Merkezi,bilinmiyor,yok,var,var,var,yok,yok,yok,yok,yok,yok,yok,yok,yok,yok,yok,yok,yok,yok,yok,yok,yok,yok,yok,yok,yok,yok,yok,yok,yok,yok,kademe_5,normal,normal,iyi,200_300_m2,5_oda,yuksek_8_15_kat,2_banyo,yok,yok,yok,dusuk,yok,yok,yok,5_7_Bucuk_Milyon_TL_Arasi
Hatay,Dortyol,Satilik,11_15_arasi,3,Kombi,bilinmiyor,yok,var,var,var,yok,var,yok,var,yok,yok,var,yok,yok,yok,yok,yok,yok,yok,yok,yok,yok,yok,yok,yok,yok,yok,yok,yok,yok,yok,kademe_5,bilinmiyor,bilinmiyor,bilinmiyor,200_300_m2,5_oda,orta_4_7_kat,2_banyo,yok,dusuk,dusuk,dusuk,orta,yuksek,yok,10_Milyon_TL_Ustu
Hatay,Iskenderun,Satilik,6_10_arasi,4,Kombi,bilinmiyor,yok,var,var,var,yok,var,var,var,var,yok,var,var,yok,var,yok,yok,yok,yok,yok,yok,yok,yok,var,yok,yok,yok,yok,yok,yok,yok,kademe_5,normal,bilinmiyor,kotu,150_200_m2,4_oda,yuksek_8_15_kat,2_banyo,dusuk,dusuk,dusuk,orta,yuksek,yuksek,yok,5_7_Bucuk_Milyon_TL_Arasi
Yozgat,Merkez,Satilik,21_25_arasi,3,Kombi,bilinmiyor,yok,var,yok,var,yok,yok,yok,var,var,yok,yok,yok,yok,yok,yok,yok,yok,yok,yok,yok,yok,yok,yok,yok,yok,yok,yok,yok,yok,yok,kademe_5,iyi,normal,kotu,50_75_m2,3_oda,orta_4_7_kat,1_banyo,yok,yok,yok,yok,yok,yok,yok,1_5_Milyon_TL_Alti
Hatay,Iskenderun,Satilik,6_10_arasi,5,Gunes_Enerjisi,bilinmiyor,yok,yok,var,var,yok,var,yok,var,yok,yok,var,yok,yok,yok,yok,yok,yok,yok,yok,yok,yok,yok,yok,yok,yok,var,var,yok,yok,yok,kademe_5,iyi,normal,bilinmiyor,200_300_m2,6_oda,orta_4_7_kat,2_banyo,yok,yok,dusuk,dusuk,orta,yuksek,yok,4_5_Milyon_TL_Arasi
Hatay,Dortyol,Satilik,1_5_arasi,2,Kombi_Dogalgaz,bilinmiyor,yok,var,var,yok,yok,yok,yok,var,var,yok,yok,var,yok,yok,yok,yok,yok,yok,yok,yok,yok,yok,yok,yok,yok,yok,yok,yok,yok,yok,kademe_5,iyi,iyi,bilinmiyor,150_200_m2,4_oda,orta_4_7_kat,2_banyo,dusuk,yok,yok,dusuk,yok,dusuk,yok,4_5_Milyon_TL_Arasi
Hatay,Iskenderun,Satilik,6_10_arasi,4,Kombi_Dogalgaz,bilinmiyor,yok,var,var,var,yok,var,var,yok,var,yok,var,var,yok,var,yok,yok,yok,yok,yok,yok,yok,yok,var,yok,yok,var,yok,yok,yok,yok,kademe_5,normal,normal,normal,125_150_m2,4_oda,orta_4_7_kat,2_banyo,dusuk,dusuk,dusuk,orta,yok,yuksek,yok,4_5_Milyon_TL_Arasi
Tokat,Niksar,Satilik,31_ve_uzeri,bilinmiyor,Dogalgaz_Sobasi,bilinmiyor,yok,yok,yok,yok,yok,yok,yok,yok,yok,yok,yok,yok,yok,yok,yok,yok,yok,yok,yok,yok,yok,yok,yok,yok,yok,yok,yok,yok,yok,yok,kademe_5,kotu,normal,normal,150_200_m2,5_oda,alcak_1_3_kat,1_banyo,yok,yok,yok,dusuk,yok,yok,yok,2_3_Milyon_TL_Arasi
Hatay,Arsuz,Satilik,11_15_arasi,1,Klima,bilinmiyor,yok,var,yok,var,yok,yok,yok,yok,yok,yok,var,yok,yok,yok,yok,yok,yok,yok,yok,yok,yok,yok,yok,yok,yok,yok,yok,yok,yok,yok,kademe_5,normal,normal,bilinmiyor,125_150_m2,3_oda,orta_4_7_kat,1_banyo,yok,yok,yok,dusuk,orta,dusuk,yok,2_3_Milyon_TL_Arasi
Tokat,Merkez,Satilik,1_5_arasi,En_Ust_Kat,Kombi_Dogalgaz,bilinmiyor,yok,var,var,yok,yok,var,yok,var,yok,yok,var,yok,yok,var,yok,yok,yok,yok,yok,yok,yok,yok,yok,yok,yok,yok,yok,yok,yok,yok,kademe_5,bilinmiyor,bilinmiyor,bilinmiyor,50_75_m2,2_oda,orta_4_7_kat,1_banyo,dusuk,yok,yok,dusuk,yok,yuksek,yok,3_4_Milyon_TL_Arasi
Hatay,Iskenderun,Satilik,6_10_arasi,Ara_Kat,Kat_Kaloriferi,bilinmiyor,yok,var,yok,var,yok,yok,yok,yok,yok,yok,yok,yok,yok,yok,yok,yok,yok,yok,yok,yok,yok,yok,yok,yok,yok,yok,yok,yok,yok,yok,kademe_5,normal,bilinmiyor,bilinmiyor,150_200_m2,4_oda,yuksek_8_15_kat,2_banyo,yok,yok,yok,dusuk,yok,yok,yok,4_5_Milyon_TL_Arasi
Hatay,Iskenderun,Satilik,11_15_arasi,4,Klima,bilinmiyor,yok,var,var,var,yok,yok,yok,yok,yok,yok,var,yok,yok,yok,yok,yok,yok,yok,yok,yok,yok,yok,yok,yok,yok,yok,yok,yok,yok,yok,kademe_5,iyi,kotu,bilinmiyor,125_150_m2,4_oda,orta_4_7_kat,1_banyo,yok,yok,yok,dusuk,orta,dusuk,yok,2_3_Milyon_TL_Arasi
Tokat,Merkez,Satilik,6_10_arasi,2,Kombi_Dogalgaz,bilinmiyor,yok,var,var,var,yok,yok,yok,var,var,yok,var,yok,yok,var,yok,yok,yok,yok,yok,yok,yok,yok,var,yok,yok,var,yok,yok,yok,yok,kademe_5,kotu,bilinmiyor,normal,125_150_m2,4_oda,orta_4_7_kat,1_banyo,yok,yok,yok,orta,dusuk,yuksek,yok,4_5_Milyon_TL_Arasi
Cankiri,Cerkes,Satilik,0,4,Kombi,bilinmiyor,yok,var,var,var,yok,yok,yok,yok,yok,yok,yok,yok,yok,yok,yok,yok,yok,yok,yok,yok,yok,yok,yok,yok,yok,yok,yok,yok,yok,yok,kademe_5,normal,normal,iyi,100_125_m2,4_oda,orta_4_7_kat,1_banyo,yok,yok,yok,dusuk,yok,yok,yok,3_4_Milyon_TL_Arasi
Hatay,Dortyol,Satilik,0,Yuksek_Giris,Kombi,bilinmiyor,yok,var,yok,var,yok,yok,yok,yok,yok,yok,yok,yok,yok,yok,yok,yok,yok,yok,yok,yok,yok,yok,yok,yok,yok,yok,yok,yok,yok,yok,kademe_5,bilinmiyor,normal,iyi,125_150_m2,3_oda,orta_4_7_kat,2_banyo,yok,yok,yok,dusuk,yok,yok,yok,3_4_Milyon_TL_Arasi
Hatay,Arsuz,Satilik,1_5_arasi,bilinmiyor,Klima,bilinmiyor,yok,var,yok,var,yok,yok,var,var,yok,yok,var,var,yok,yok,yok,yok,yok,yok,yok,yok,yok,yok,yok,yok,yok,yok,var,yok,yok,yok,kademe_5,bilinmiyor,bilinmiyor,bilinmiyor,300_m2_ve_ustu,7_oda_ve_ustu,alcak_1_3_kat,3_banyo_ve_ustu,dusuk,yok,yok,dusuk,yok,yuksek,yok,10_Milyon_TL_Ustu
Bartin,Merkez,Satilik,0,1,Klima,bilinmiyor,yok,yok,var,var,yok,yok,yok,yok,yok,yok,yok,yok,yok,yok,yok,yok,yok,yok,yok,yok,yok,yok,yok,yok,yok,yok,yok,yok,yok,yok,kademe_5,normal,kotu,bilinmiyor,50_75_m2,2_oda,orta_4_7_kat,1_banyo,yok,yok,yok,dusuk,yok,dusuk,yok,5_7_Bucuk_Milyon_TL_Arasi
Kahramanmaras,Onikisubat,Satilik,6_10_arasi,En_Ust_Kat,Kombi_Dogalgaz,bilinmiyor,yok,var,var,var,yok,var,yok,var,var,yok,var,var,yok,var,yok,yok,yok,yok,yok,yok,yok,yok,yok,yok,yok,var,yok,yok,yok,yok,kademe_5,normal,normal,bilinmiyor,200_300_m2,5_oda,yuksek_8_15_kat,2_banyo,dusuk,dusuk,dusuk,dusuk,yok,yuksek,yok,4_5_Milyon_TL_Arasi
Bartin,Merkez,Satilik,1_5_arasi,En_Ust_Kat,Kombi_Dogalgaz,bilinmiyor,yok,var,var,var,yok,var,var,var,var,yok,yok,yok,yok,yok,yok,yok,yok,yok,yok,yok,yok,yok,yok,yok,yok,yok,yok,yok,yok,yok,kademe_5,normal,bilinmiyor,kotu,75_100_m2,2_oda,orta_4_7_kat,1_banyo,yok,yok,yok,dusuk,yok,yok,yok,3_4_Milyon_TL_Arasi
Hatay,Belen,Satilik,16_20_arasi,Bahce,Kombi,bilinmiyor,yok,yok,yok,var,yok,var,yok,var,yok,yok,yok,yok,yok,yok,yok,yok,yok,yok,yok,yok,yok,yok,yok,yok,yok,yok,yok,yok,yok,yok,kademe_5,iyi,bilinmiyor,bilinmiyor,200_300_m2,6_oda,orta_4_7_kat,3_banyo_ve_ustu,yok,yok,yok,dusuk,yok,yok,yok,10_Milyon_TL_Ustu
Hatay,Arsuz,Satilik,1_5_arasi,bilinmiyor,Soba,bilinmiyor,yok,var,yok,yok,var,yok,yok,yok,var,yok,yok,yok,yok,yok,yok,yok,yok,yok,yok,yok,yok,yok,yok,yok,yok,yok,yok,yok,yok,yok,kademe_5,normal,bilinmiyor,bilinmiyor,300_m2_ve_ustu,5_oda,orta_4_7_kat,2_banyo,yok,yok,yok,dusuk,yok,yok,yok,10_Milyon_TL_Ustu
Kahramanmaras,Dulkadiroglu,Satilik,11_15_arasi,En_Ust_Kat,Kombi_Dogalgaz,bilinmiyor,yok,var,var,yok,yok,var,yok,yok,var,yok,var,yok,yok,var,yok,yok,yok,yok,yok,yok,yok,yok,yok,yok,yok,var,yok,yok,yok,yok,kademe_5,normal,normal,normal,75_100_m2,3_oda,orta_4_7_kat,1_banyo,yok,yok,yok,orta,orta,orta,yok,2_3_Milyon_TL_Arasi
Yozgat,Merkez,Satilik,16_20_arasi,3,Kombi_Dogalgaz,bilinmiyor,yok,yok,var,var,yok,yok,yok,yok,yok,yok,var,yok,yok,yok,yok,yok,yok,yok,yok,yok,yok,yok,yok,yok,yok,var,yok,yok,yok,yok,kademe_5,iyi,normal,kotu,125_150_m2,4_oda,orta_4_7_kat,1_banyo,yok,yok,dusuk,dusuk,dusuk,orta,yok,1_5_2_Milyon_TL_Arasi
Hatay,Defne,Satilik,11_15_arasi,3,Kombi,bilinmiyor,yok,var,var,var,yok,yok,var,yok,var,yok,var,yok,yok,yok,yok,yok,yok,yok,yok,yok,yok,yok,yok,yok,yok,var,yok,yok,yok,yok,kademe_5,normal,kotu,bilinmiyor,150_200_m2,4_oda,orta_4_7_kat,1_banyo,yok,dusuk,dusuk,dusuk,dusuk,dusuk,yok,2_3_Milyon_TL_Arasi
Kahramanmaras,Onikisubat,Satilik,6_10_arasi,Giris,Kombi,bilinmiyor,yok,var,yok,var,yok,var,yok,var,yok,yok,var,var,yok,yok,yok,yok,yok,yok,yok,yok,yok,yok,var,yok,yok,var,yok,yok,yok,yok,kademe_5,iyi,kotu,bilinmiyor,125_150_m2,5_oda,yuksek_8_15_kat,2_banyo,yok,yok,dusuk,dusuk,orta,yuksek,yok,3_4_Milyon_TL_Arasi
Hatay,Arsuz,Satilik,0,1,Klima,bilinmiyor,yok,var,yok,var,yok,var,var,var,var,yok,var,yok,yok,yok,yok,yok,yok,yok,yok,yok,yok,var,var,yok,yok,yok,yok,yok,yok,yok,kademe_5,bilinmiyor,bilinmiyor,bilinmiyor,75_100_m2,3_oda,alcak_1_3_kat,1_banyo,yok,dusuk,dusuk,dusuk,dusuk,yuksek,yok,4_5_Milyon_TL_Arasi
Hatay,Antakya,Satilik,1_5_arasi,3,Kombi_Dogalgaz,bilinmiyor,yok,var,var,yok,yok,var,var,var,yok,yok,yok,yok,yok,yok,yok,yok,yok,yok,yok,yok,yok,yok,yok,yok,yok,yok,yok,yok,yok,yok,kademe_5,iyi,iyi,bilinmiyor,100_125_m2,4_oda,orta_4_7_kat,1_banyo,yok,yok,yok,dusuk,yok,yok,yok,2_3_Milyon_TL_Arasi
Tokat,Merkez,Satilik,1_5_arasi,2,Yerden_Isitma,bilinmiyor,yok,var,var,var,var,yok,yok,yok,yok,yok,yok,yok,yok,yok,yok,yok,yok,yok,yok,yok,yok,yok,yok,yok,yok,yok,yok,yok,yok,yok,kademe_5,normal,normal,normal,0_50_m2,2_oda,orta_4_7_kat,1_banyo,yok,yok,yok,yok,yok,yok,yok,2_3_Milyon_TL_Arasi
Hatay,Iskenderun,Satilik,16_20_arasi,Zemin,Klima,bilinmiyor,yok,yok,var,yok,yok,yok,yok,yok,yok,yok,var,yok,yok,yok,yok,yok,yok,var,yok,yok,yok,yok,yok,yok,yok,yok,yok,yok,yok,yok,kademe_5,kotu,kotu,bilinmiyor,200_300_m2,4_oda,orta_4_7_kat,1_banyo,dusuk,yok,yok,dusuk,dusuk,orta,yok,7_Bucuk_10_Milyon_TL_Arasi
Hatay,Dortyol,Satilik,26_30_arasi,Bahce,Klima,bilinmiyor,yok,var,yok,yok,yok,var,var,var,var,yok,yok,yok,yok,yok,yok,yok,yok,yok,yok,yok,yok,yok,yok,yok,yok,yok,yok,yok,yok,yok,kademe_5,iyi,iyi,bilinmiyor,125_150_m2,3_oda,bilinmiyor,1_banyo,yok,yok,yok,dusuk,dusuk,dusuk,yok,5_7_Bucuk_Milyon_TL_Arasi
Hatay,Antakya,Satilik,6_10_arasi,4,Kombi_Dogalgaz,bilinmiyor,yok,var,var,var,yok,var,yok,var,yok,yok,var,var,yok,yok,yok,yok,yok,yok,yok,yok,yok,yok,yok,yok,yok,var,yok,yok,yok,yok,kademe_5,iyi,normal,iyi,150_200_m2,4_oda,orta_4_7_kat,2_banyo,yok,yok,yok,dusuk,dusuk,dusuk,yok,3_4_Milyon_TL_Arasi
Nigde,Merkez,Satilik,0,3,Kombi_Dogalgaz,bilinmiyor,yok,var,var,var,yok,var,var,var,yok,yok,var,yok,yok,var,yok,yok,yok,yok,yok,yok,yok,yok,yok,yok,yok,var,yok,yok,yok,yok,kademe_5,bilinmiyor,iyi,bilinmiyor,75_100_m2,3_oda,yuksek_8_15_kat,1_banyo,dusuk,dusuk,yok,orta,dusuk,yuksek,yok,4_5_Milyon_TL_Arasi
Hatay,Iskenderun,Satilik,0,1,isitma_yok,bilinmiyor,yok,var,yok,var,yok,var,var,var,yok,yok,var,yok,yok,yok,yok,yok,yok,yok,yok,yok,yok,yok,var,yok,yok,yok,yok,yok,yok,yok,kademe_5,normal,bilinmiyor,kotu,100_125_m2,4_oda,orta_4_7_kat,1_banyo,yok,yok,dusuk,dusuk,dusuk,yuksek,yok,3_4_Milyon_TL_Arasi
Tokat,Merkez,Satilik,6_10_arasi,2,Kombi,bilinmiyor,yok,var,var,var,yok,yok,yok,yok,yok,yok,var,yok,yok,yok,yok,yok,yok,yok,yok,yok,yok,yok,yok,yok,yok,yok,yok,yok,yok,yok,kademe_5,iyi,iyi,bilinmiyor,150_200_m2,5_oda,orta_4_7_kat,2_banyo,yok,yok,yok,dusuk,yok,dusuk,yok,5_7_Bucuk_Milyon_TL_Arasi
Hatay,Dortyol,Satilik,6_10_arasi,5,Kombi,bilinmiyor,yok,var,var,var,yok,var,var,yok,var,yok,yok,yok,yok,yok,yok,yok,yok,yok,yok,yok,yok,yok,yok,yok,yok,yok,var,yok,yok,yok,kademe_5,normal,normal,bilinmiyor,300_m2_ve_ustu,6_oda,orta_4_7_kat,2_banyo,yok,yok,yok,dusuk,yok,yok,yok,5_7_Bucuk_Milyon_TL_Arasi
Hatay,Arsuz,Satilik,21_25_arasi,bilinmiyor,Klima,bilinmiyor,yok,var,yok,var,var,var,var,var,var,yok,var,yok,yok,yok,yok,yok,yok,yok,var,yok,yok,yok,yok,yok,yok,yok,var,yok,yok,yok,kademe_5,kotu,kotu,bilinmiyor,150_200_m2,4_oda,alcak_1_3_kat,1_banyo,dusuk,dusuk,dusuk,dusuk,dusuk,yuksek,yok,7_Bucuk_10_Milyon_TL_Arasi
Erzurum,Yakutiye,Satilik,0,Zemin,Yerden_Isitma,bilinmiyor,yok,var,var,var,yok,yok,var,var,yok,yok,var,var,yok,var,yok,yok,yok,yok,yok,yok,yok,yok,var,yok,yok,var,yok,yok,yok,yok,kademe_5,iyi,normal,iyi,150_200_m2,4_oda,orta_4_7_kat,2_banyo,dusuk,dusuk,dusuk,dusuk,yuksek,yuksek,yok,5_7_Bucuk_Milyon_TL_Arasi
Kahramanmaras,Dulkadiroglu,Satilik,0,Giris,Kombi,bilinmiyor,yok,yok,yok,var,yok,var,var,yok,var,yok,var,var,yok,yok,yok,yok,yok,yok,yok,yok,yok,yok,yok,yok,yok,var,yok,yok,yok,yok,kademe_5,iyi,normal,normal,75_100_m2,3_oda,alcak_1_3_kat,2_banyo,yok,dusuk,yok,dusuk,orta,orta,yok,2_3_Milyon_TL_Arasi
Kahramanmaras,Onikisubat,Satilik,11_15_arasi,1,bilinmiyor,bilinmiyor,yok,var,yok,yok,yok,yok,yok,yok,yok,yok,yok,yok,yok,yok,yok,yok,yok,yok,yok,yok,yok,yok,yok,yok,yok,yok,yok,yok,yok,yok,kademe_5,bilinmiyor,bilinmiyor,bilinmiyor,125_150_m2,4_oda,alcak_1_3_kat,2_banyo,yok,yok,yok,dusuk,yok,yok,yok,4_5_Milyon_TL_Arasi
Tokat,Pazar,Satilik,0,5,Kombi_Dogalgaz,bilinmiyor,yok,var,var,var,yok,var,var,var,var,yok,var,yok,yok,var,yok,yok,yok,yok,yok,yok,yok,yok,yok,yok,yok,var,yok,yok,yok,yok,kademe_5,iyi,kotu,bilinmiyor,125_150_m2,4_oda,yuksek_8_15_kat,2_banyo,dusuk,yok,yok,dusuk,dusuk,yuksek,yok,4_5_Milyon_TL_Arasi
Bartin,Merkez,Satilik,6_10_arasi,Yuksek_Giris,Klima,bilinmiyor,yok,var,yok,yok,yok,yok,yok,yok,yok,yok,yok,yok,yok,yok,yok,yok,yok,yok,yok,yok,yok,yok,yok,yok,yok,yok,yok,yok,yok,yok,kademe_5,kotu,kotu,iyi,50_75_m2,2_oda,orta_4_7_kat,1_banyo,yok,yok,yok,dusuk,yok,dusuk,yok,4_5_Milyon_TL_Arasi
Tokat,Merkez,Satilik,1_5_arasi,4,Kombi,bilinmiyor,yok,var,var,var,yok,var,var,yok,yok,yok,var,yok,yok,var,yok,yok,yok,yok,yok,yok,yok,yok,yok,yok,yok,var,yok,yok,yok,yok,kademe_5,normal,bilinmiyor,bilinmiyor,125_150_m2,4_oda,orta_4_7_kat,1_banyo,yok,yok,dusuk,dusuk,yuksek,orta,yok,4_5_Milyon_TL_Arasi
Tokat,Merkez,Satilik,0,4,Yerden_Isitma,bilinmiyor,yok,var,yok,var,yok,var,var,yok,var,yok,yok,yok,yok,yok,yok,yok,yok,yok,yok,yok,yok,yok,var,yok,yok,var,yok,yok,yok,yok,kademe_5,bilinmiyor,bilinmiyor,bilinmiyor,100_125_m2,3_oda,orta_4_7_kat,1_banyo,yok,yok,yok,orta,orta,yok,yok,5_7_Bucuk_Milyon_TL_Arasi
Yozgat,Merkez,Satilik,0,3,Kombi,bilinmiyor,yok,var,var,var,yok,var,var,yok,var,yok,var,yok,yok,var,yok,yok,yok,yok,yok,yok,yok,yok,yok,yok,yok,var,yok,yok,yok,yok,kademe_5,iyi,iyi,bilinmiyor,50_75_m2,3_oda,orta_4_7_kat,1_banyo,yok,yok,dusuk,dusuk,orta,orta,yok,2_3_Milyon_TL_Arasi
Nigde,Merkez,Satilik,26_30_arasi,4,Kombi_Dogalgaz,bilinmiyor,yok,var,var,yok,yok,var,var,var,yok,yok,yok,yok,yok,yok,yok,yok,yok,yok,yok,yok,yok,yok,yok,yok,yok,yok,yok,yok,yok,yok,kademe_5,kotu,normal,bilinmiyor,125_150_m2,4_oda,orta_4_7_kat,1_banyo,yok,yok,yok,dusuk,yok,yok,yok,2_3_Milyon_TL_Arasi
Hatay,Antakya,Satilik,11_15_arasi,5,Merkezi,bilinmiyor,yok,yok,var,yok,yok,yok,yok,yok,yok,yok,yok,yok,yok,yok,yok,yok,yok,yok,yok,yok,yok,yok,yok,yok,yok,yok,yok,yok,yok,yok,kademe_5,iyi,normal,bilinmiyor,75_100_m2,3_oda,yuksek_8_15_kat,1_banyo,yok,yok,yok,dusuk,yok,yok,yok,1_5_2_Milyon_TL_Arasi
Hatay,Payas,Satilik,0,2,Kombi,bilinmiyor,yok,var,var,var,yok,var,var,var,var,yok,var,var,yok,yok,yok,yok,yok,yok,yok,yok,yok,yok,var,yok,yok,var,yok,yok,yok,yok,kademe_5,iyi,iyi,normal,150_200_m2,4_oda,orta_4_7_kat,2_banyo,yok,dusuk,yok,dusuk,orta,yuksek,yok,3_4_Milyon_TL_Arasi
Yozgat,Merkez,Satilik,0,2,Kombi,bilinmiyor,yok,var,var,var,yok,yok,var,var,yok,yok,yok,yok,yok,var,yok,yok,yok,yok,yok,yok,yok,yok,var,yok,yok,yok,yok,yok,yok,yok,kademe_5,bilinmiyor,bilinmiyor,bilinmiyor,125_150_m2,4_oda,yuksek_8_15_kat,1_banyo,yok,yok,yok,dusuk,orta,orta,yok,3_4_Milyon_TL_Arasi
Hatay,Antakya,Satilik,6_10_arasi,1,Klima,bilinmiyor,yok,var,yok,var,var,yok,var,yok,yok,yok,var,yok,yok,var,yok,yok,yok,yok,yok,yok,yok,yok,yok,yok,yok,var,yok,yok,yok,yok,kademe_5,kotu,kotu,kotu,50_75_m2,3_oda,orta_4_7_kat,1_banyo,yok,yok,yok,dusuk,yok,yuksek,yok,1_5_Milyon_TL_Alti
Nigde,Merkez,Satilik,21_25_arasi,5,Kombi,bilinmiyor,yok,var,yok,var,yok,yok,yok,var,var,yok,var,yok,yok,var,yok,yok,yok,yok,yok,yok,yok,yok,yok,yok,yok,var,yok,yok,yok,yok,kademe_5,normal,iyi,bilinmiyor,125_150_m2,4_oda,orta_4_7_kat,1_banyo,yok,yok,dusuk,dusuk,orta,yuksek,yok,3_4_Milyon_TL_Arasi
Nigde,Merkez,Satilik,26_30_arasi,4,Merkezi,bilinmiyor,yok,var,var,var,yok,yok,var,yok,var,yok,var,yok,yok,yok,yok,yok,yok,yok,yok,yok,yok,yok,yok,yok,yok,var,yok,yok,yok,yok,kademe_5,normal,normal,iyi,125_150_m2,4_oda,orta_4_7_kat,1_banyo,yok,dusuk,dusuk,dusuk,orta,yuksek,yok,3_4_Milyon_TL_Arasi
Tokat,Merkez,Satilik,11_15_arasi,7,Merkezi,bilinmiyor,yok,var,var,var,yok,yok,var,yok,yok,yok,var,yok,yok,var,yok,yok,yok,yok,yok,yok,yok,yok,var,yok,yok,yok,yok,yok,yok,yok,kademe_5,normal,normal,kotu,125_150_m2,4_oda,yuksek_8_15_kat,1_banyo,yok,yok,yok,dusuk,dusuk,yuksek,yok,4_5_Milyon_TL_Arasi
Hatay,Arsuz,Satilik,1_5_arasi,1,Kombi,bilinmiyor,yok,var,var,var,yok,yok,yok,yok,yok,yok,yok,yok,yok,yok,yok,yok,yok,yok,yok,yok,yok,yok,yok,yok,yok,yok,yok,yok,yok,yok,kademe_5,bilinmiyor,normal,iyi,75_100_m2,3_oda,orta_4_7_kat,1_banyo,yok,yok,yok,dusuk,dusuk,yok,yok,4_5_Milyon_TL_Arasi
Tokat,Niksar,Satilik,11_15_arasi,bilinmiyor,Kombi_Dogalgaz,bilinmiyor,yok,var,yok,yok,yok,yok,yok,var,yok,yok,var,yok,yok,var,yok,yok,yok,yok,yok,yok,yok,yok,yok,yok,yok,yok,yok,yok,yok,yok,kademe_5,kotu,bilinmiyor,kotu,300_m2_ve_ustu,7_oda_ve_ustu,orta_4_7_kat,3_banyo_ve_ustu,yok,yok,yok,dusuk,dusuk,orta,yok,5_7_Bucuk_Milyon_TL_Arasi
Cankiri,Cerkes,Satilik,1_5_arasi,1,Kombi,bilinmiyor,yok,var,var,var,yok,yok,yok,yok,yok,yok,yok,yok,yok,yok,yok,yok,yok,yok,yok,yok,yok,yok,yok,yok,yok,yok,yok,yok,yok,yok,kademe_5,iyi,normal,bilinmiyor,100_125_m2,4_oda,orta_4_7_kat,2_banyo,yok,yok,yok,dusuk,yok,yok,yok,5_7_Bucuk_Milyon_TL_Arasi
Tokat,Niksar,Satilik,1_5_arasi,2,Kombi_Dogalgaz,bilinmiyor,yok,var,yok,var,yok,yok,yok,yok,yok,yok,var,yok,yok,yok,yok,yok,yok,yok,yok,yok,yok,yok,var,yok,yok,var,yok,yok,yok,yok,kademe_5,iyi,normal,bilinmiyor,125_150_m2,4_oda,orta_4_7_kat,1_banyo,yok,yok,yok,dusuk,dusuk,yuksek,yok,4_5_Milyon_TL_Arasi
Kahramanmaras,Dulkadiroglu,Satilik,1_5_arasi,3,Kombi,bilinmiyor,yok,var,var,var,yok,yok,yok,yok,yok,yok,var,yok,yok,yok,yok,yok,yok,yok,yok,yok,yok,yok,var,yok,yok,yok,yok,yok,yok,yok,kademe_5,normal,normal,bilinmiyor,75_100_m2,2_oda,alcak_1_3_kat,1_banyo,dusuk,dusuk,yok,dusuk,orta,yuksek,yok,2_3_Milyon_TL_Arasi
Hatay,Iskenderun,Satilik,16_20_arasi,Zemin,Klima,bilinmiyor,yok,var,var,var,var,yok,var,yok,yok,yok,var,yok,yok,yok,yok,yok,yok,yok,var,yok,yok,yok,var,yok,yok,yok,yok,yok,yok,yok,kademe_5,kotu,bilinmiyor,kotu,50_75_m2,2_oda,yuksek_8_15_kat,1_banyo,yok,yok,yok,orta,orta,yuksek,yok,1_5_2_Milyon_TL_Arasi
Tokat,Merkez,Satilik,26_30_arasi,1,Kombi,bilinmiyor,yok,var,yok,var,yok,yok,yok,var,var,yok,var,yok,yok,yok,yok,yok,yok,yok,yok,yok,yok,yok,yok,yok,yok,yok,yok,yok,yok,yok,kademe_5,bilinmiyor,bilinmiyor,bilinmiyor,100_125_m2,3_oda,orta_4_7_kat,1_banyo,yok,yok,yok,dusuk,orta,orta,yok,3_4_Milyon_TL_Arasi
Hatay,Dortyol,Satilik,0,Bahce,Kombi,bilinmiyor,yok,yok,yok,var,yok,var,var,var,var,yok,var,var,yok,yok,yok,yok,yok,yok,yok,yok,yok,yok,yok,yok,yok,var,yok,yok,yok,var,kademe_5,bilinmiyor,iyi,iyi,200_300_m2,5_oda,orta_4_7_kat,3_banyo_ve_ustu,yok,dusuk,yok,dusuk,orta,yuksek,yok,10_Milyon_TL_Ustu
Yozgat,Merkez,Satilik,16_20_arasi,Giris,Kombi_Dogalgaz,bilinmiyor,yok,var,yok,var,yok,yok,yok,yok,yok,yok,yok,yok,yok,yok,yok,yok,yok,yok,yok,yok,yok,yok,yok,yok,yok,yok,yok,yok,yok,yok,kademe_5,kotu,bilinmiyor,bilinmiyor,125_150_m2,4_oda,orta_4_7_kat,1_banyo,yok,yok,yok,dusuk,dusuk,orta,yok,1_5_Milyon_TL_Alti
Nigde,Merkez,Satilik,31_ve_uzeri,1,Kombi,bilinmiyor,yok,var,yok,yok,yok,yok,yok,yok,yok,yok,yok,yok,yok,yok,yok,yok,yok,yok,yok,yok,yok,yok,yok,yok,yok,yok,yok,yok,yok,yok,kademe_5,normal,normal,kotu,75_100_m2,3_oda,orta_4_7_kat,1_banyo,yok,yok,yok,dusuk,yok,yok,yok,3_4_Milyon_TL_Arasi
Hatay,Yayladagi,Satilik,1_5_arasi,Bahce,Kombi,bilinmiyor,yok,var,yok,var,yok,var,var,var,var,yok,yok,yok,yok,yok,yok,yok,yok,yok,yok,yok,yok,yok,var,yok,yok,var,yok,yok,yok,yok,kademe_5,kotu,normal,bilinmiyor,150_200_m2,3_oda,bilinmiyor,2_banyo,yok,yok,yok,dusuk,dusuk,yok,yok,3_4_Milyon_TL_Arasi
Tokat,Niksar,Satilik,26_30_arasi,bilinmiyor,Dogalgaz_Sobasi,bilinmiyor,yok,var,yok,var,yok,var,yok,var,yok,yok,var,yok,yok,var,yok,yok,yok,yok,yok,yok,yok,yok,yok,yok,yok,var,yok,yok,yok,yok,kademe_5,normal,normal,kotu,300_m2_ve_ustu,7_oda_ve_ustu,orta_4_7_kat,3_banyo_ve_ustu,yok,yok,yok,orta,orta,orta,yok,5_7_Bucuk_Milyon_TL_Arasi
Hatay,Erzin,Satilik,1_5_arasi,2,Kombi,bilinmiyor,yok,var,var,var,yok,yok,var,yok,var,yok,var,yok,yok,var,yok,yok,yok,yok,yok,yok,yok,yok,var,yok,yok,var,yok,yok,yok,yok,kademe_5,iyi,iyi,normal,125_150_m2,3_oda,orta_4_7_kat,1_banyo,yok,dusuk,dusuk,dusuk,yuksek,yuksek,yok,3_4_Milyon_TL_Arasi
Tokat,Merkez,Satilik,0,2,Kombi,bilinmiyor,yok,var,var,var,yok,yok,yok,var,yok,yok,yok,yok,yok,yok,yok,yok,yok,yok,yok,yok,yok,yok,yok,yok,yok,var,yok,yok,yok,yok,kademe_5,kotu,bilinmiyor,iyi,0_50_m2,2_oda,orta_4_7_kat,1_banyo,yok,yok,yok,dusuk,yok,dusuk,yok,2_3_Milyon_TL_Arasi
Hatay,Iskenderun,Satilik,11_15_arasi,4,Kombi_Dogalgaz,bilinmiyor,yok,var,var,yok,yok,var,var,var,var,yok,var,var,yok,yok,yok,yok,yok,yok,yok,yok,yok,var,var,yok,yok,var,yok,yok,yok,yok,kademe_5,bilinmiyor,iyi,kotu,150_200_m2,4_oda,orta_4_7_kat,2_banyo,dusuk,dusuk,yok,orta,dusuk,yuksek,yok,4_5_Milyon_TL_Arasi
Kahramanmaras,Onikisubat,Satilik,1_5_arasi,4,Kombi_Dogalgaz,bilinmiyor,yok,var,var,var,yok,var,var,var,yok,yok,var,yok,yok,var,yok,yok,yok,yok,yok,yok,yok,yok,var,yok,yok,var,yok,yok,yok,yok,kademe_5,iyi,iyi,normal,150_200_m2,5_oda,orta_4_7_kat,1_banyo,dusuk,yok,yok,dusuk,yok,yuksek,yok,3_4_Milyon_TL_Arasi
Hatay,Defne,Satilik,1_5_arasi,Bahce,Soba,bilinmiyor,yok,var,yok,var,yok,var,var,var,var,yok,var,yok,yok,var,yok,yok,yok,yok,yok,yok,yok,yok,yok,yok,yok,var,yok,yok,yok,yok,kademe_5,bilinmiyor,bilinmiyor,bilinmiyor,75_100_m2,4_oda,bilinmiyor,1_banyo,yok,dusuk,dusuk,orta,orta,dusuk,yok,5_7_Bucuk_Milyon_TL_Arasi
Hatay,Arsuz,Satilik,26_30_arasi,bilinmiyor,Klima,bilinmiyor,yok,var,var,var,var,var,var,var,var,yok,var,yok,yok,yok,yok,yok,yok,yok,var,yok,yok,var,var,yok,yok,yok,yok,yok,yok,yok,kademe_5,bilinmiyor,bilinmiyor,bilinmiyor,200_300_m2,3_oda,alcak_1_3_kat,bilinmiyor,dusuk,dusuk,yok,orta,dusuk,yuksek,yok,10_Milyon_TL_Ustu
Hatay,Iskenderun,Satilik,6_10_arasi,2,Kombi_Dogalgaz,bilinmiyor,yok,var,var,yok,yok,yok,yok,yok,yok,yok,var,var,yok,yok,yok,yok,yok,yok,yok,yok,yok,yok,var,yok,yok,var,yok,yok,yok,yok,kademe_5,normal,normal,bilinmiyor,125_150_m2,4_oda,orta_4_7_kat,2_banyo,dusuk,yok,yok,dusuk,yok,orta,yok,3_4_Milyon_TL_Arasi
Kahramanmaras,Dulkadiroglu,Satilik,1_5_arasi,Zemin,Kombi,bilinmiyor,yok,yok,yok,yok,yok,yok,var,var,yok,yok,yok,yok,yok,yok,yok,yok,yok,yok,yok,yok,yok,yok,yok,yok,yok,yok,yok,yok,yok,yok,kademe_5,normal,normal,iyi,75_100_m2,2_oda,orta_4_7_kat,2_banyo,yok,yok,yok,dusuk,yok,yok,yok,1_5_2_Milyon_TL_Arasi
Tokat,Merkez,Satilik,21_25_arasi,4,Kombi,bilinmiyor,yok,var,yok,var,yok,var,var,yok,yok,yok,var,yok,yok,var,yok,yok,yok,yok,yok,yok,yok,yok,yok,yok,yok,var,yok,yok,yok,yok,kademe_5,bilinmiyor,kotu,bilinmiyor,125_150_m2,4_oda,orta_4_7_kat,1_banyo,yok,yok,yok,dusuk,orta,orta,yok,2_3_Milyon_TL_Arasi
Nigde,Merkez,Satilik,1_5_arasi,Yuksek_Giris,Merkezi,bilinmiyor,yok,var,var,var,yok,var,var,var,yok,yok,yok,var,yok,var,yok,yok,yok,yok,yok,yok,yok,yok,yok,yok,yok,var,yok,yok,yok,yok,kademe_5,iyi,normal,bilinmiyor,150_200_m2,4_oda,cok_yuksek_16_ustu_kat,3_banyo_ve_ustu,yok,orta,yok,orta,orta,yuksek,yok,5_7_Bucuk_Milyon_TL_Arasi
Hatay,Iskenderun,Satilik,31_ve_uzeri,3,Klima,bilinmiyor,yok,yok,yok,yok,yok,yok,yok,yok,yok,yok,yok,yok,yok,yok,yok,yok,yok,yok,yok,yok,yok,yok,yok,yok,yok,yok,yok,yok,yok,yok,kademe_5,iyi,normal,bilinmiyor,125_150_m2,4_oda,orta_4_7_kat,1_banyo,yok,yok,yok,dusuk,yok,dusuk,yok,2_3_Milyon_TL_Arasi
Tokat,Niksar,Satilik,0,Ara_Kat,Kombi_Dogalgaz,bilinmiyor,yok,var,var,yok,yok,yok,yok,var,yok,yok,var,yok,yok,var,yok,yok,yok,yok,yok,yok,yok,yok,yok,yok,yok,var,yok,yok,yok,yok,kademe_5,kotu,bilinmiyor,kotu,50_75_m2,2_oda,orta_4_7_kat,1_banyo,orta,yok,yok,orta,orta,orta,yok,2_3_Milyon_TL_Arasi
Hatay,Arsuz,Satilik,1_5_arasi,6,Kombi_Dogalgaz,bilinmiyor,yok,var,var,var,yok,var,yok,var,var,yok,var,var,yok,var,yok,yok,yok,yok,var,yok,yok,var,var,yok,yok,yok,yok,yok,yok,yok,kademe_5,normal,iyi,kotu,150_200_m2,4_oda,yuksek_8_15_kat,2_banyo,dusuk,dusuk,yok,dusuk,yok,yuksek,yok,5_7_Bucuk_Milyon_TL_Arasi
Hatay,Antakya,Satilik,1_5_arasi,2,Yerden_Isitma,bilinmiyor,yok,var,var,var,yok,yok,yok,yok,yok,yok,yok,yok,yok,yok,yok,yok,yok,yok,yok,yok,yok,yok,yok,yok,yok,yok,yok,yok,yok,yok,kademe_5,iyi,normal,normal,125_150_m2,4_oda,orta_4_7_kat,1_banyo,yok,yok,yok,orta,orta,yok,yok,2_3_Milyon_TL_Arasi
Kahramanmaras,Onikisubat,Satilik,6_10_arasi,9,Merkezi,bilinmiyor,yok,var,var,var,yok,var,var,yok,yok,yok,var,var,yok,var,yok,yok,yok,yok,yok,yok,yok,yok,yok,yok,yok,var,var,yok,yok,yok,kademe_5,iyi,normal,bilinmiyor,200_300_m2,6_oda,yuksek_8_15_kat,2_banyo,orta,dusuk,dusuk,dusuk,yok,yuksek,yok,5_7_Bucuk_Milyon_TL_Arasi
Hatay,Defne,Satilik,0,1,Kombi,bilinmiyor,yok,yok,yok,var,yok,yok,yok,yok,yok,yok,yok,yok,yok,yok,yok,yok,yok,yok,yok,yok,yok,yok,yok,yok,yok,yok,yok,yok,yok,yok,kademe_5,kotu,normal,bilinmiyor,100_125_m2,4_oda,orta_4_7_kat,2_banyo,yok,yok,yok,dusuk,yok,yok,yok,3_4_Milyon_TL_Arasi
Hatay,Iskenderun,Satilik,6_10_arasi,Zemin,Klima,bilinmiyor,yok,yok,var,yok,yok,var,var,var,var,yok,var,yok,yok,yok,yok,yok,yok,yok,yok,yok,yok,yok,var,yok,yok,var,yok,yok,yok,yok,kademe_5,bilinmiyor,bilinmiyor,kotu,100_125_m2,3_oda,orta_4_7_kat,bilinmiyor,yok,yok,dusuk,orta,yok,dusuk,yok,2_3_Milyon_TL_Arasi
Hatay,Arsuz,Satilik,0,bilinmiyor,Yerden_Isitma,bilinmiyor,yok,var,yok,yok,yok,var,var,var,var,yok,var,var,yok,yok,yok,yok,yok,yok,yok,yok,yok,var,yok,yok,yok,yok,yok,yok,yok,yok,kademe_5,bilinmiyor,bilinmiyor,bilinmiyor,300_m2_ve_ustu,5_oda,orta_4_7_kat,3_banyo_ve_ustu,yok,yok,yok,dusuk,yok,dusuk,yok,10_Milyon_TL_Ustu
Yozgat,Merkez,Satilik,11_15_arasi,En_Ust_Kat,Kombi_Dogalgaz,bilinmiyor,yok,var,yok,yok,yok,yok,yok,var,yok,yok,yok,yok,yok,yok,yok,yok,yok,yok,yok,yok,yok,yok,yok,yok,yok,yok,yok,yok,yok,yok,kademe_5,kotu,iyi,kotu,50_75_m2,2_oda,orta_4_7_kat,1_banyo,yok,yok,yok,dusuk,yok,yok,yok,1_5_Milyon_TL_Alti
Erzurum,Palandoken,Satilik,16_20_arasi,4,Kombi_Dogalgaz,bilinmiyor,yok,yok,yok,yok,yok,var,var,yok,yok,yok,yok,yok,yok,yok,yok,yok,yok,yok,yok,yok,yok,yok,yok,yok,yok,yok,yok,yok,yok,yok,kademe_5,normal,normal,normal,125_150_m2,4_oda,orta_4_7_kat,1_banyo,yok,yok,yok,dusuk,yok,yok,yok,2_3_Milyon_TL_Arasi
Hatay,Antakya,Satilik,6_10_arasi,Yuksek_Giris,Kombi_Dogalgaz,bilinmiyor,yok,yok,var,yok,yok,var,var,var,var,yok,yok,yok,yok,yok,yok,yok,yok,yok,yok,yok,yok,yok,yok,yok,yok,yok,yok,yok,yok,yok,kademe_5,normal,normal,bilinmiyor,100_125_m2,3_oda,orta_4_7_kat,1_banyo,yok,yok,yok,dusuk,yok,yok,yok,1_5_2_Milyon_TL_Arasi
Hatay,Antakya,Satilik,6_10_arasi,3,Merkezi,bilinmiyor,yok,var,var,var,var,yok,var,var,yok,yok,var,yok,yok,yok,yok,yok,yok,yok,yok,yok,yok,yok,yok,yok,yok,var,yok,yok,yok,yok,kademe_5,normal,kotu,bilinmiyor,125_150_m2,4_oda,orta_4_7_kat,1_banyo,dusuk,dusuk,dusuk,orta,dusuk,yuksek,yok,2_3_Milyon_TL_Arasi
Hatay,Dortyol,Satilik,6_10_arasi,3,Kat_Kaloriferi,bilinmiyor,yok,yok,yok,yok,yok,yok,yok,yok,yok,yok,yok,yok,yok,yok,yok,yok,yok,yok,yok,yok,yok,yok,yok,yok,yok,yok,yok,yok,yok,yok,kademe_5,normal,kotu,bilinmiyor,50_75_m2,2_oda,orta_4_7_kat,1_banyo,yok,yok,yok,dusuk,yok,yok,yok,1_5_Milyon_TL_Alti
Hatay,Dortyol,Satilik,1_5_arasi,5,Kombi,bilinmiyor,yok,var,var,var,yok,var,var,var,yok,yok,var,var,yok,var,yok,yok,yok,yok,yok,yok,yok,yok,var,yok,yok,var,yok,yok,yok,yok,kademe_5,bilinmiyor,iyi,bilinmiyor,200_300_m2,5_oda,yuksek_8_15_kat,2_banyo,dusuk,orta,dusuk,orta,orta,yuksek,yok,10_Milyon_TL_Ustu
Nigde,Merkez,Satilik,0,4,Kombi_Dogalgaz,bilinmiyor,yok,var,var,var,yok,var,yok,var,yok,yok,var,yok,yok,var,yok,yok,yok,yok,yok,yok,yok,yok,yok,yok,yok,yok,yok,yok,yok,yok,kademe_5,iyi,normal,bilinmiyor,125_150_m2,4_oda,alcak_1_3_kat,bilinmiyor,dusuk,yok,yok,dusuk,orta,dusuk,yok,4_5_Milyon_TL_Arasi
Tokat,Merkez,Satilik,0,3,Kombi_Dogalgaz,bilinmiyor,yok,var,var,var,yok,var,var,var,var,yok,var,yok,yok,var,yok,yok,yok,yok,yok,yok,yok,yok,yok,yok,yok,var,yok,yok,yok,yok,kademe_5,bilinmiyor,bilinmiyor,bilinmiyor,50_75_m2,2_oda,orta_4_7_kat,1_banyo,dusuk,yok,yok,dusuk,orta,yuksek,yok,3_4_Milyon_TL_Arasi
Kahramanmaras,Onikisubat,Satilik,0,1,Kombi_Dogalgaz,bilinmiyor,yok,var,var,var,yok,var,var,var,var,yok,var,yok,yok,var,yok,yok,yok,yok,yok,yok,yok,yok,var,yok,yok,var,yok,yok,yok,yok,kademe_5,kotu,bilinmiyor,kotu,100_125_m2,3_oda,yuksek_8_15_kat,1_banyo,dusuk,yok,dusuk,dusuk,yok,yuksek,yok,2_3_Milyon_TL_Arasi
Yozgat,Merkez,Satilik,0,2,Kombi,bilinmiyor,yok,var,var,var,yok,yok,var,yok,var,yok,yok,yok,yok,yok,yok,yok,yok,yok,yok,yok,yok,yok,yok,yok,yok,yok,yok,yok,yok,yok,kademe_5,normal,normal,bilinmiyor,125_150_m2,4_oda,yuksek_8_15_kat,2_banyo,yok,yok,yok,dusuk,yok,yok,yok,3_4_Milyon_TL_Arasi
Erzurum,Palandoken,Satilik,1_5_arasi,bilinmiyor,Kombi_Dogalgaz,bilinmiyor,yok,var,yok,var,yok,var,var,var,var,yok,var,var,yok,var,yok,yok,yok,yok,yok,yok,yok,yok,yok,yok,yok,var,yok,yok,yok,yok,kademe_5,iyi,normal,bilinmiyor,200_300_m2,6_oda,alcak_1_3_kat,2_banyo,dusuk,dusuk,dusuk,dusuk,yok,yuksek,yok,10_Milyon_TL_Ustu
Tokat,Merkez,Satilik,31_ve_uzeri,Bahce,isitma_yok,bilinmiyor,yok,var,yok,yok,yok,yok,yok,yok,yok,yok,yok,yok,yok,yok,yok,yok,yok,yok,yok,yok,yok,yok,yok,yok,yok,yok,yok,yok,yok,yok,kademe_5,bilinmiyor,bilinmiyor,bilinmiyor,200_300_m2,5_oda,bilinmiyor,1_banyo,yok,yok,yok,dusuk,yok,yok,yok,5_7_Bucuk_Milyon_TL_Arasi
Hatay,Reyhanli,Satilik,16_20_arasi,1,bilinmiyor,bilinmiyor,yok,yok,yok,yok,yok,yok,yok,yok,yok,yok,yok,yok,yok,yok,yok,yok,yok,yok,yok,yok,yok,yok,yok,yok,yok,yok,yok,yok,yok,yok,kademe_5,bilinmiyor,bilinmiyor,kotu,75_100_m2,4_oda,alcak_1_3_kat,1_banyo,yok,yok,yok,dusuk,yok,yok,yok,1_5_2_Milyon_TL_Arasi
Hatay,Belen,Satilik,26_30_arasi,bilinmiyor,Dogalgaz_Sobasi,bilinmiyor,yok,yok,yok,yok,yok,yok,yok,yok,yok,yok,yok,yok,yok,yok,yok,yok,yok,yok,yok,yok,yok,yok,yok,yok,yok,yok,yok,var,yok,yok,kademe_5,iyi,normal,normal,150_200_m2,5_oda,orta_4_7_kat,1_banyo,yok,yok,yok,dusuk,yok,yok,yok,5_7_Bucuk_Milyon_TL_Arasi
Tokat,Merkez,Satilik,1_5_arasi,Giris,Kombi_Dogalgaz,bilinmiyor,yok,var,var,var,var,var,var,var,var,yok,var,yok,yok,yok,yok,yok,yok,yok,yok,yok,yok,yok,yok,yok,yok,yok,yok,yok,yok,yok,kademe_5,iyi,iyi,normal,0_50_m2,2_oda,orta_4_7_kat,1_banyo,dusuk,yok,yok,dusuk,yok,orta,yok,2_3_Milyon_TL_Arasi
Hatay,Dortyol,Satilik,0,Yuksek_Giris,Kombi_Dogalgaz,bilinmiyor,yok,yok,yok,yok,yok,var,var,yok,var,yok,yok,yok,yok,yok,yok,yok,yok,yok,yok,yok,yok,yok,yok,yok,yok,yok,yok,yok,yok,yok,kademe_5,normal,normal,iyi,100_125_m2,3_oda,orta_4_7_kat,2_banyo,yok,yok,yok,dusuk,yok,yok,yok,3_4_Milyon_TL_Arasi
Nigde,Merkez,Satilik,16_20_arasi,Giris,Kombi,bilinmiyor,yok,var,yok,var,yok,yok,yok,yok,yok,yok,yok,yok,yok,yok,yok,yok,yok,yok,yok,yok,yok,yok,yok,yok,yok,yok,yok,yok,yok,yok,kademe_5,normal,kotu,bilinmiyor,125_150_m2,4_oda,orta_4_7_kat,1_banyo,yok,yok,yok,dusuk,yok,yok,yok,2_3_Milyon_TL_Arasi
Hatay,Arsuz,Satilik,0,Ara_Kat,Gunes_Enerjisi,bilinmiyor,yok,var,yok,yok,yok,yok,yok,yok,yok,yok,yok,yok,yok,yok,yok,yok,yok,yok,yok,yok,yok,yok,yok,yok,yok,yok,yok,yok,yok,yok,kademe_5,kotu,normal,iyi,50_75_m2,2_oda,orta_4_7_kat,1_banyo,yok,yok,yok,dusuk,yok,yok,yok,2_3_Milyon_TL_Arasi
Tokat,Merkez,Satilik,21_25_arasi,4,Kombi_Dogalgaz,bilinmiyor,yok,var,var,yok,yok,yok,yok,var,var,yok,var,yok,yok,var,var,yok,yok,yok,yok,yok,yok,yok,var,yok,yok,var,var,yok,yok,yok,kademe_5,bilinmiyor,bilinmiyor,bilinmiyor,200_300_m2,5_oda,orta_4_7_kat,2_banyo,yok,dusuk,dusuk,orta,orta,orta,yok,5_7_Bucuk_Milyon_TL_Arasi
Bartin,Merkez,Satilik,6_10_arasi,En_Ust_Kat,Kombi_Dogalgaz,bilinmiyor,yok,var,var,var,yok,var,var,yok,yok,yok,var,yok,yok,yok,yok,yok,yok,yok,yok,yok,yok,yok,yok,yok,yok,var,var,yok,var,yok,kademe_5,iyi,kotu,normal,125_150_m2,4_oda,orta_4_7_kat,2_banyo,dusuk,yok,dusuk,dusuk,dusuk,yuksek,yok,7_Bucuk_10_Milyon_TL_Arasi
Hatay,Defne,Satilik,1_5_arasi,Villa_Kati,Yerden_Isitma,bilinmiyor,yok,var,var,var,var,var,var,var,yok,yok,var,var,yok,var,var,yok,yok,yok,yok,yok,yok,yok,var,yok,yok,var,yok,var,yok,yok,kademe_5,kotu,normal,normal,300_m2_ve_ustu,7_oda_ve_ustu,orta_4_7_kat,3_banyo_ve_ustu,dusuk,orta,dusuk,dusuk,yok,yuksek,yok,5_7_Bucuk_Milyon_TL_Arasi
Yozgat,Merkez,Satilik,21_25_arasi,4,Kombi_Dogalgaz,bilinmiyor,yok,var,yok,var,yok,yok,yok,yok,yok,yok,var,yok,yok,yok,yok,yok,yok,yok,yok,yok,yok,yok,yok,yok,yok,var,yok,yok,yok,yok,kademe_5,iyi,normal,bilinmiyor,125_150_m2,4_oda,orta_4_7_kat,1_banyo,yok,yok,yok,orta,dusuk,yuksek,yok,2_3_Milyon_TL_Arasi
Osmaniye,Toprakkale,Satilik,0,3,Kombi,bilinmiyor,yok,var,var,var,yok,yok,yok,yok,yok,yok,yok,yok,yok,yok,yok,yok,yok,yok,yok,yok,yok,yok,yok,yok,yok,yok,yok,yok,yok,yok,kademe_5,iyi,bilinmiyor,normal,125_150_m2,4_oda,orta_4_7_kat,2_banyo,yok,yok,yok,dusuk,yok,yok,yok,4_5_Milyon_TL_Arasi
Nigde,Merkez,Satilik,6_10_arasi,Yuksek_Giris,Merkezi,bilinmiyor,yok,var,var,var,yok,yok,yok,yok,yok,yok,yok,yok,yok,yok,yok,yok,yok,yok,yok,yok,yok,yok,yok,yok,yok,yok,yok,yok,yok,yok,kademe_5,normal,bilinmiyor,bilinmiyor,150_200_m2,4_oda,yuksek_8_15_kat,2_banyo,yok,yok,yok,dusuk,yok,yok,yok,5_7_Bucuk_Milyon_TL_Arasi
Hatay,Iskenderun,Satilik,0,Yuksek_Giris,Klima,bilinmiyor,yok,var,var,yok,yok,var,yok,var,var,yok,var,yok,yok,var,yok,yok,yok,yok,yok,yok,yok,yok,yok,yok,yok,yok,yok,yok,yok,yok,kademe_5,kotu,bilinmiyor,kotu,50_75_m2,3_oda,orta_4_7_kat,1_banyo,dusuk,yok,yok,dusuk,yok,orta,yok,2_3_Milyon_TL_Arasi
Hatay,Antakya,Satilik,1_5_arasi,5,Kombi,bilinmiyor,yok,var,var,var,yok,yok,yok,yok,yok,yok,var,yok,yok,yok,yok,yok,yok,yok,yok,yok,yok,yok,yok,yok,yok,yok,yok,yok,yok,yok,kademe_5,iyi,normal,kotu,200_300_m2,5_oda,orta_4_7_kat,2_banyo,yok,yok,dusuk,orta,yuksek,yok,yok,3_4_Milyon_TL_Arasi
Hatay,Antakya,Satilik,1_5_arasi,Bahce,isi_pompasi,bilinmiyor,yok,var,yok,var,yok,var,var,var,yok,yok,var,var,yok,yok,yok,yok,yok,yok,var,yok,yok,yok,var,yok,yok,var,yok,yok,yok,var,kademe_5,bilinmiyor,iyi,normal,300_m2_ve_ustu,7_oda_ve_ustu,orta_4_7_kat,3_banyo_ve_ustu,yok,dusuk,dusuk,orta,yuksek,yuksek,yok,10_Milyon_TL_Ustu
Nigde,Merkez,Satilik,0,3,Merkezi,bilinmiyor,yok,yok,var,var,yok,yok,var,yok,yok,yok,var,yok,yok,var,yok,yok,yok,yok,yok,yok,yok,yok,yok,yok,yok,var,yok,yok,yok,yok,kademe_5,iyi,normal,bilinmiyor,100_125_m2,3_oda,yuksek_8_15_kat,1_banyo,dusuk,dusuk,yok,dusuk,dusuk,yuksek,yok,5_7_Bucuk_Milyon_TL_Arasi
Erzurum,Yakutiye,Satilik,11_15_arasi,2,Merkezi,bilinmiyor,yok,var,var,var,yok,var,var,var,yok,yok,var,yok,yok,var,yok,yok,yok,yok,yok,yok,yok,yok,yok,yok,yok,var,yok,yok,yok,yok,kademe_5,iyi,kotu,bilinmiyor,150_200_m2,4_oda,yuksek_8_15_kat,2_banyo,dusuk,yok,dusuk,orta,dusuk,yuksek,yok,3_4_Milyon_TL_Arasi
Hatay,Iskenderun,Satilik,1_5_arasi,6,isitma_yok,bilinmiyor,yok,var,var,var,yok,yok,yok,yok,yok,yok,yok,yok,yok,yok,yok,yok,yok,yok,yok,yok,yok,yok,yok,yok,yok,yok,yok,yok,yok,yok,kademe_5,normal,bilinmiyor,normal,150_200_m2,4_oda,yuksek_8_15_kat,2_banyo,yok,yok,yok,dusuk,yok,yok,yok,3_4_Milyon_TL_Arasi
Osmaniye,Merkez,Satilik,1_5_arasi,4,Kombi_Dogalgaz,bilinmiyor,yok,var,var,var,yok,var,var,var,yok,yok,var,var,yok,var,yok,yok,yok,yok,yok,yok,yok,yok,var,yok,yok,var,yok,yok,yok,yok,kademe_5,normal,normal,bilinmiyor,150_200_m2,4_oda,orta_4_7_kat,2_banyo,dusuk,dusuk,yok,orta,yok,yuksek,yok,5_7_Bucuk_Milyon_TL_Arasi
Hatay,Iskenderun,Satilik,6_10_arasi,2,Klima,bilinmiyor,yok,yok,var,var,var,yok,yok,yok,var,yok,var,yok,yok,yok,yok,yok,yok,yok,yok,yok,yok,var,yok,yok,yok,yok,yok,yok,yok,yok,kademe_5,normal,kotu,normal,50_75_m2,2_oda,orta_4_7_kat,1_banyo,dusuk,yok,yok,orta,orta,yuksek,yok,1_5_2_Milyon_TL_Arasi
Hatay,Arsuz,Satilik,0,Yuksek_Giris,Gunes_Enerjisi,bilinmiyor,yok,yok,yok,yok,yok,yok,yok,yok,yok,yok,yok,yok,yok,yok,yok,yok,yok,yok,yok,yok,yok,yok,yok,yok,yok,yok,yok,yok,yok,yok,kademe_5,normal,bilinmiyor,iyi,75_100_m2,3_oda,orta_4_7_kat,1_banyo,yok,yok,yok,dusuk,dusuk,yok,yok,3_4_Milyon_TL_Arasi
Hatay,Iskenderun,Satilik,11_15_arasi,En_Ust_Kat,Klima,bilinmiyor,yok,var,yok,yok,yok,var,yok,var,yok,yok,var,yok,yok,yok,yok,yok,yok,yok,yok,yok,yok,yok,yok,yok,yok,var,var,yok,yok,yok,kademe_5,iyi,normal,bilinmiyor,200_300_m2,3_oda,orta_4_7_kat,1_banyo,yok,yok,yok,dusuk,yok,orta,yok,3_4_Milyon_TL_Arasi
Hatay,Erzin,Satilik,1_5_arasi,5,Kombi,bilinmiyor,yok,var,var,var,yok,yok,var,var,var,yok,var,yok,yok,var,yok,yok,yok,yok,yok,yok,yok,yok,var,yok,yok,var,yok,yok,yok,yok,kademe_5,normal,normal,bilinmiyor,150_200_m2,4_oda,orta_4_7_kat,1_banyo,dusuk,dusuk,yok,orta,yuksek,yuksek,yok,3_4_Milyon_TL_Arasi
Tokat,Niksar,Satilik,0,Ara_Kat,Kombi_Dogalgaz,bilinmiyor,yok,yok,yok,yok,yok,yok,yok,var,yok,yok,yok,yok,yok,yok,yok,yok,yok,yok,yok,yok,yok,yok,yok,yok,yok,yok,yok,yok,yok,yok,kademe_5,kotu,normal,kotu,0_50_m2,2_oda,orta_4_7_kat,1_banyo,yok,yok,yok,dusuk,yok,yok,yok,2_3_Milyon_TL_Arasi
Kahramanmaras,Onikisubat,Satilik,16_20_arasi,bilinmiyor,Merkezi,bilinmiyor,yok,yok,yok,yok,yok,yok,yok,yok,yok,yok,yok,yok,yok,yok,yok,yok,yok,yok,yok,yok,yok,yok,yok,yok,yok,yok,yok,yok,yok,yok,kademe_5,normal,bilinmiyor,bilinmiyor,300_m2_ve_ustu,5_oda,alcak_1_3_kat,1_banyo,yok,yok,yok,dusuk,yok,yok,yok,5_7_Bucuk_Milyon_TL_Arasi
Hatay,Iskenderun,Satilik,21_25_arasi,3,Klima,bilinmiyor,yok,var,yok,yok,yok,var,var,yok,yok,yok,var,yok,yok,yok,yok,yok,yok,yok,yok,yok,yok,yok,yok,yok,yok,var,yok,yok,yok,yok,kademe_5,kotu,kotu,bilinmiyor,100_125_m2,4_oda,orta_4_7_kat,1_banyo,yok,yok,yok,dusuk,orta,yuksek,yok,2_3_Milyon_TL_Arasi
Yozgat,Merkez,Satilik,0,4,Kombi_Dogalgaz,bilinmiyor,yok,var,var,var,yok,yok,yok,yok,yok,yok,var,yok,yok,yok,yok,yok,yok,yok,yok,yok,yok,yok,yok,yok,yok,yok,yok,yok,yok,yok,kademe_5,normal,bilinmiyor,bilinmiyor,50_75_m2,3_oda,orta_4_7_kat,1_banyo,yok,yok,dusuk,dusuk,yok,yuksek,yok,2_3_Milyon_TL_Arasi
Yozgat,Merkez,Satilik,11_15_arasi,5,Yerden_Isitma,bilinmiyor,yok,var,var,var,yok,yok,yok,var,yok,yok,var,yok,yok,yok,yok,yok,yok,yok,yok,yok,yok,yok,var,yok,yok,var,yok,yok,yok,yok,kademe_5,normal,normal,normal,150_200_m2,5_oda,orta_4_7_kat,2_banyo,dusuk,yok,yok,dusuk,orta,yuksek,yok,5_7_Bucuk_Milyon_TL_Arasi
Kahramanmaras,Onikisubat,Satilik,11_15_arasi,3,Kombi,bilinmiyor,yok,var,yok,var,yok,var,yok,yok,var,yok,var,yok,yok,yok,yok,yok,yok,yok,yok,yok,yok,yok,yok,yok,yok,var,yok,yok,yok,yok,kademe_5,iyi,bilinmiyor,bilinmiyor,200_300_m2,6_oda,orta_4_7_kat,2_banyo,yok,dusuk,yok,dusuk,orta,orta,yok,4_5_Milyon_TL_Arasi
Hatay,Iskenderun,Satilik,0,3,isitma_yok_elektrik,bilinmiyor,yok,yok,var,var,yok,yok,yok,yok,yok,yok,var,yok,yok,yok,yok,yok,yok,yok,yok,yok,yok,yok,yok,yok,yok,yok,yok,yok,yok,yok,kademe_5,bilinmiyor,bilinmiyor,bilinmiyor,50_75_m2,2_oda,orta_4_7_kat,1_banyo,yok,yok,yok,orta,dusuk,dusuk,yok,2_3_Milyon_TL_Arasi
Kahramanmaras,Onikisubat,Satilik,6_10_arasi,7,Merkezi,bilinmiyor,yok,var,yok,var,yok,yok,var,var,var,yok,yok,yok,yok,yok,yok,yok,yok,yok,yok,yok,yok,yok,yok,yok,yok,yok,yok,yok,yok,yok,kademe_5,normal,iyi,bilinmiyor,200_300_m2,6_oda,yuksek_8_15_kat,2_banyo,yok,yok,yok,dusuk,yok,yok,yok,7_Bucuk_10_Milyon_TL_Arasi
Nigde,Ulukisla,Satilik,0,Bahce,Klima,bilinmiyor,yok,var,yok,yok,yok,var,var,var,var,yok,yok,var,yok,var,yok,yok,yok,yok,yok,yok,yok,yok,var,yok,yok,var,yok,yok,yok,yok,kademe_5,iyi,normal,kotu,100_125_m2,3_oda,bilinmiyor,2_banyo,yok,yok,yok,dusuk,orta,yuksek,yok,4_5_Milyon_TL_Arasi
Tokat,Niksar,Satilik,16_20_arasi,bilinmiyor,Kombi_Dogalgaz,bilinmiyor,yok,yok,yok,var,yok,yok,yok,yok,yok,yok,yok,yok,yok,yok,yok,yok,yok,yok,yok,yok,yok,yok,var,yok,yok,var,yok,yok,yok,yok,kademe_5,kotu,kotu,bilinmiyor,150_200_m2,6_oda,orta_4_7_kat,2_banyo,yok,yok,yok,dusuk,yok,yuksek,yok,3_4_Milyon_TL_Arasi
Hatay,Iskenderun,Satilik,21_25_arasi,4,Kombi,bilinmiyor,yok,var,var,var,yok,yok,yok,yok,yok,yok,var,yok,yok,yok,yok,yok,yok,yok,yok,yok,yok,yok,yok,yok,yok,var,yok,yok,yok,yok,kademe_5,normal,bilinmiyor,bilinmiyor,125_150_m2,4_oda,orta_4_7_kat,1_banyo,yok,yok,yok,dusuk,yok,orta,yok,3_4_Milyon_TL_Arasi
Hatay,Dortyol,Satilik,0,5,Kombi_Dogalgaz,bilinmiyor,yok,var,var,var,yok,var,var,var,yok,yok,var,yok,yok,var,yok,yok,yok,yok,yok,yok,yok,var,var,yok,yok,var,yok,yok,yok,yok,kademe_5,bilinmiyor,iyi,bilinmiyor,100_125_m2,3_oda,orta_4_7_kat,1_banyo,dusuk,yok,yok,orta,orta,yuksek,yok,4_5_Milyon_TL_Arasi
Hatay,Defne,Satilik,6_10_arasi,Ara_Kat,Kombi_Dogalgaz,bilinmiyor,yok,var,yok,var,yok,var,var,yok,var,yok,var,yok,yok,yok,yok,yok,yok,yok,yok,yok,yok,yok,var,yok,yok,var,yok,yok,yok,yok,kademe_5,iyi,normal,bilinmiyor,125_150_m2,4_oda,orta_4_7_kat,1_banyo,dusuk,dusuk,yok,dusuk,dusuk,orta,yok,4_5_Milyon_TL_Arasi
Hatay,Arsuz,Satilik,0,bilinmiyor,Klima,bilinmiyor,yok,yok,yok,yok,yok,yok,yok,yok,yok,yok,yok,yok,yok,yok,yok,yok,yok,yok,yok,yok,yok,yok,yok,yok,yok,yok,yok,yok,yok,yok,kademe_5,iyi,iyi,bilinmiyor,200_300_m2,4_oda,alcak_1_3_kat,1_banyo,yok,yok,yok,dusuk,dusuk,dusuk,yok,7_Bucuk_10_Milyon_TL_Arasi
Tokat,Niksar,Satilik,26_30_arasi,bilinmiyor,Soba,bilinmiyor,yok,yok,yok,yok,yok,var,var,var,var,yok,yok,yok,yok,yok,yok,yok,yok,yok,yok,yok,yok,yok,yok,yok,yok,yok,yok,yok,yok,yok,kademe_5,kotu,normal,kotu,100_125_m2,7_oda_ve_ustu,alcak_1_3_kat,2_banyo,yok,yok,yok,dusuk,yok,yok,yok,2_3_Milyon_TL_Arasi
Hatay,Arsuz,Satilik,1_5_arasi,bilinmiyor,Kat_Kaloriferi,bilinmiyor,yok,yok,var,yok,yok,yok,yok,yok,yok,yok,yok,yok,yok,yok,yok,yok,yok,yok,yok,yok,yok,yok,yok,yok,yok,yok,yok,yok,yok,yok,kademe_5,bilinmiyor,kotu,bilinmiyor,300_m2_ve_ustu,6_oda,orta_4_7_kat,3_banyo_ve_ustu,yok,yok,yok,yok,yok,yok,yok,10_Milyon_TL_Ustu
Yozgat,Merkez,Satilik,0,2,Kombi,bilinmiyor,yok,var,var,var,yok,var,var,var,var,yok,var,yok,yok,yok,yok,yok,yok,yok,yok,yok,yok,yok,var,yok,yok,var,yok,yok,yok,yok,kademe_5,iyi,bilinmiyor,kotu,75_100_m2,3_oda,orta_4_7_kat,1_banyo,yok,yok,yok,dusuk,orta,orta,yok,2_3_Milyon_TL_Arasi
Hatay,Belen,Satilik,6_10_arasi,4,Kombi,bilinmiyor,yok,yok,yok,var,yok,yok,yok,yok,yok,yok,yok,yok,yok,yok,yok,yok,yok,yok,yok,yok,yok,yok,yok,yok,yok,yok,yok,yok,yok,yok,kademe_5,normal,bilinmiyor,normal,200_300_m2,4_oda,orta_4_7_kat,3_banyo_ve_ustu,yok,yok,yok,dusuk,yok,yok,yok,5_7_Bucuk_Milyon_TL_Arasi
Hatay,Belen,Satilik,16_20_arasi,5,Kombi,bilinmiyor,yok,var,var,var,yok,var,var,var,yok,yok,var,yok,yok,yok,yok,yok,yok,yok,yok,yok,yok,yok,var,yok,yok,var,yok,yok,yok,yok,kademe_5,normal,kotu,normal,100_125_m2,3_oda,orta_4_7_kat,1_banyo,dusuk,yok,yok,dusuk,dusuk,dusuk,yok,2_3_Milyon_TL_Arasi
Hatay,Defne,Satilik,6_10_arasi,1,Kombi,bilinmiyor,yok,var,var,var,yok,var,yok,yok,var,yok,yok,yok,yok,yok,yok,yok,yok,yok,yok,yok,yok,yok,yok,yok,yok,yok,yok,yok,yok,yok,kademe_5,iyi,bilinmiyor,bilinmiyor,125_150_m2,4_oda,orta_4_7_kat,1_banyo,yok,yok,yok,dusuk,yok,yok,yok,2_3_Milyon_TL_Arasi
Hatay,Dortyol,Satilik,11_15_arasi,1,Kombi,bilinmiyor,yok,var,var,yok,yok,var,yok,yok,var,yok,var,var,yok,yok,yok,yok,yok,yok,yok,yok,yok,yok,yok,yok,yok,var,yok,yok,yok,yok,kademe_5,iyi,normal,kotu,200_300_m2,4_oda,orta_4_7_kat,2_banyo,yok,dusuk,dusuk,dusuk,orta,yuksek,yok,4_5_Milyon_TL_Arasi
Kahramanmaras,Onikisubat,Satilik,0,5,Kombi,bilinmiyor,yok,var,yok,var,yok,var,yok,yok,var,yok,var,var,yok,yok,yok,yok,yok,yok,yok,yok,yok,yok,var,yok,yok,var,yok,yok,yok,yok,kademe_5,iyi,normal,bilinmiyor,125_150_m2,4_oda,orta_4_7_kat,2_banyo,yok,yok,yok,orta,orta,yuksek,yok,5_7_Bucuk_Milyon_TL_Arasi
Hatay,Arsuz,Satilik,6_10_arasi,En_Ust_Kat,Gunes_Enerjisi,bilinmiyor,yok,var,yok,yok,yok,yok,yok,yok,yok,yok,yok,yok,yok,yok,yok,yok,yok,yok,yok,yok,yok,yok,yok,yok,yok,yok,yok,yok,yok,yok,kademe_5,kotu,normal,normal,125_150_m2,4_oda,orta_4_7_kat,1_banyo,yok,yok,yok,dusuk,yok,yok,yok,3_4_Milyon_TL_Arasi
Kahramanmaras,Dulkadiroglu,Satilik,0,1,Kombi,bilinmiyor,yok,var,yok,var,yok,var,var,var,yok,yok,var,yok,yok,yok,yok,yok,yok,yok,yok,yok,yok,yok,yok,yok,yok,yok,yok,yok,yok,yok,kademe_5,bilinmiyor,bilinmiyor,bilinmiyor,75_100_m2,3_oda,orta_4_7_kat,1_banyo,yok,yok,yok,dusuk,orta,dusuk,yok,2_3_Milyon_TL_Arasi
Yozgat,Merkez,Satilik,11_15_arasi,6,Merkezi,bilinmiyor,yok,var,var,var,yok,yok,yok,yok,yok,yok,var,var,yok,yok,yok,yok,yok,yok,yok,yok,yok,yok,yok,yok,yok,yok,yok,yok,yok,yok,kademe_5,iyi,normal,normal,125_150_m2,4_oda,yuksek_8_15_kat,2_banyo,yok,yok,yok,dusuk,orta,yuksek,yok,3_4_Milyon_TL_Arasi
Tokat,Merkez,Satilik,1_5_arasi,Giris,Kombi,bilinmiyor,yok,yok,var,var,yok,yok,yok,yok,yok,yok,yok,yok,yok,yok,yok,yok,yok,yok,yok,yok,yok,yok,yok,yok,yok,yok,yok,yok,yok,yok,kademe_5,normal,bilinmiyor,normal,50_75_m2,2_oda,orta_4_7_kat,1_banyo,yok,yok,yok,dusuk,yok,yok,yok,1_5_2_Milyon_TL_Arasi
Hatay,Dortyol,Satilik,1_5_arasi,3,Kombi_Dogalgaz,bilinmiyor,yok,var,var,var,yok,var,yok,yok,var,yok,var,yok,yok,var,yok,yok,yok,yok,yok,yok,yok,var,yok,yok,yok,var,yok,yok,yok,yok,kademe_5,bilinmiyor,bilinmiyor,bilinmiyor,125_150_m2,4_oda,orta_4_7_kat,2_banyo,dusuk,dusuk,yok,dusuk,orta,orta,yok,4_5_Milyon_TL_Arasi
Hatay,Antakya,Satilik,11_15_arasi,2,Soba,bilinmiyor,yok,yok,yok,yok,yok,yok,yok,yok,yok,yok,yok,yok,yok,yok,yok,yok,yok,yok,yok,yok,yok,yok,yok,yok,yok,yok,yok,yok,yok,yok,kademe_5,normal,kotu,kotu,50_75_m2,3_oda,orta_4_7_kat,1_banyo,yok,yok,yok,dusuk,yok,yok,yok,1_5_Milyon_TL_Alti
Hatay,Arsuz,Satilik,0,Giris,Klima,bilinmiyor,yok,var,var,var,yok,yok,yok,yok,yok,yok,var,yok,yok,yok,yok,yok,yok,yok,var,yok,yok,yok,yok,yok,yok,yok,yok,yok,yok,yok,kademe_5,iyi,normal,bilinmiyor,125_150_m2,3_oda,orta_4_7_kat,1_banyo,yok,yok,yok,dusuk,yok,dusuk,yok,5_7_Bucuk_Milyon_TL_Arasi
Hatay,Hassa,Satilik,21_25_arasi,Giris,Soba,bilinmiyor,yok,yok,yok,yok,yok,yok,yok,var,yok,yok,yok,yok,yok,yok,yok,yok,yok,yok,yok,yok,yok,yok,yok,yok,yok,yok,yok,yok,yok,yok,kademe_5,bilinmiyor,bilinmiyor,bilinmiyor,300_m2_ve_ustu,2_oda,alcak_1_3_kat,1_banyo,yok,yok,yok,dusuk,yok,yok,yok,2_3_Milyon_TL_Arasi
Hatay,Antakya,Satilik,21_25_arasi,bilinmiyor,Soba,bilinmiyor,yok,yok,yok,yok,yok,var,var,var,var,yok,yok,yok,yok,yok,yok,yok,yok,yok,yok,yok,yok,yok,yok,yok,yok,yok,yok,yok,yok,yok,kademe_5,bilinmiyor,bilinmiyor,bilinmiyor,200_300_m2,4_oda,orta_4_7_kat,2_banyo,yok,yok,yok,orta,dusuk,yok,yok,7_Bucuk_10_Milyon_TL_Arasi
Tokat,Merkez,Satilik,0,4,Yerden_Isitma,bilinmiyor,yok,var,var,var,yok,yok,yok,var,var,yok,var,yok,yok,var,yok,yok,yok,yok,yok,yok,yok,yok,var,yok,yok,var,yok,yok,yok,yok,kademe_5,bilinmiyor,bilinmiyor,iyi,0_50_m2,1_oda,orta_4_7_kat,1_banyo,dusuk,yok,yok,orta,orta,orta,yok,2_3_Milyon_TL_Arasi
Hatay,Belen,Satilik,11_15_arasi,3,Kombi_Dogalgaz,bilinmiyor,yok,var,var,var,yok,yok,var,var,var,yok,var,var,yok,yok,yok,yok,yok,yok,yok,yok,yok,yok,var,yok,yok,var,yok,yok,yok,yok,kademe_5,iyi,normal,normal,125_150_m2,4_oda,orta_4_7_kat,2_banyo,dusuk,dusuk,yok,orta,orta,yuksek,yok,4_5_Milyon_TL_Arasi
Yozgat,Merkez,Satilik,26_30_arasi,6,Kombi_Dogalgaz,bilinmiyor,yok,yok,yok,yok,yok,var,var,var,yok,yok,yok,yok,yok,yok,yok,yok,yok,yok,yok,yok,yok,yok,yok,yok,yok,yok,yok,yok,yok,yok,kademe_5,kotu,bilinmiyor,bilinmiyor,125_150_m2,4_oda,orta_4_7_kat,1_banyo,yok,yok,yok,yok,yok,yok,yok,2_3_Milyon_TL_Arasi
Cankiri,Cerkes,Satilik,21_25_arasi,2,Kombi,bilinmiyor,yok,var,yok,var,yok,yok,var,var,var,yok,var,yok,yok,yok,yok,yok,yok,yok,yok,yok,yok,yok,var,yok,yok,var,yok,yok,yok,yok,kademe_5,normal,kotu,bilinmiyor,125_150_m2,4_oda,orta_4_7_kat,1_banyo,yok,yok,yok,dusuk,dusuk,yok,yok,2_3_Milyon_TL_Arasi
Hatay,Antakya,Satilik,1_5_arasi,4,Klima,bilinmiyor,yok,var,var,var,var,yok,var,yok,yok,yok,var,yok,yok,yok,yok,yok,yok,yok,yok,yok,yok,yok,yok,yok,yok,yok,yok,yok,yok,yok,kademe_5,normal,normal,normal,0_50_m2,2_oda,orta_4_7_kat,1_banyo,dusuk,dusuk,yok,dusuk,dusuk,yuksek,yok,1_5_Milyon_TL_Alti
Hatay,Iskenderun,Satilik,6_10_arasi,9,Kombi,bilinmiyor,yok,var,var,var,var,var,var,var,yok,yok,var,var,yok,yok,yok,yok,yok,yok,yok,yok,yok,yok,var,yok,yok,var,yok,yok,yok,yok,kademe_5,normal,bilinmiyor,bilinmiyor,150_200_m2,4_oda,yuksek_8_15_kat,2_banyo,dusuk,dusuk,yok,orta,orta,yuksek,yok,5_7_Bucuk_Milyon_TL_Arasi
Hatay,Defne,Satilik,6_10_arasi,3,Kombi_Dogalgaz,bilinmiyor,yok,var,var,var,yok,var,var,var,yok,yok,var,yok,yok,var,yok,yok,yok,yok,yok,yok,yok,yok,yok,yok,yok,var,var,yok,yok,yok,kademe_5,kotu,normal,bilinmiyor,200_300_m2,4_oda,orta_4_7_kat,1_banyo,dusuk,dusuk,yok,dusuk,orta,yuksek,yok,4_5_Milyon_TL_Arasi
Hatay,Yayladagi,Satilik,1_5_arasi,Bahce,isi_pompasi,bilinmiyor,yok,yok,yok,var,yok,yok,yok,yok,yok,yok,yok,yok,yok,yok,yok,yok,yok,yok,yok,yok,yok,yok,yok,yok,yok,yok,yok,yok,yok,yok,kademe_5,bilinmiyor,bilinmiyor,bilinmiyor,300_m2_ve_ustu,5_oda,alcak_1_3_kat,3_banyo_ve_ustu,yok,yok,yok,dusuk,yok,yok,yok,10_Milyon_TL_Ustu
Hatay,Iskenderun,Satilik,21_25_arasi,2,Klima,bilinmiyor,yok,var,var,var,yok,yok,yok,yok,yok,yok,yok,yok,yok,yok,yok,yok,yok,yok,yok,yok,yok,yok,yok,yok,yok,yok,yok,yok,yok,yok,kademe_5,normal,normal,iyi,125_150_m2,4_oda,orta_4_7_kat,2_banyo,yok,yok,yok,dusuk,yok,dusuk,yok,2_3_Milyon_TL_Arasi
Hatay,Arsuz,Satilik,11_15_arasi,3,Klima,bilinmiyor,yok,var,yok,var,yok,yok,yok,yok,yok,yok,yok,yok,yok,yok,yok,yok,yok,yok,yok,yok,yok,yok,yok,yok,yok,var,yok,yok,yok,yok,kademe_5,iyi,normal,kotu,125_150_m2,4_oda,orta_4_7_kat,1_banyo,yok,yok,yok,dusuk,yok,dusuk,yok,2_3_Milyon_TL_Arasi
Tokat,Niksar,Satilik,16_20_arasi,3,Kombi,bilinmiyor,yok,var,yok,var,yok,yok,yok,var,yok,yok,yok,yok,yok,yok,yok,yok,yok,yok,yok,yok,yok,yok,yok,yok,yok,yok,yok,yok,yok,yok,kademe_5,bilinmiyor,bilinmiyor,bilinmiyor,150_200_m2,7_oda_ve_ustu,orta_4_7_kat,3_banyo_ve_ustu,yok,yok,yok,dusuk,yok,yok,yok,10_Milyon_TL_Ustu
Tokat,Merkez,Satilik,16_20_arasi,4,Kombi_Dogalgaz,bilinmiyor,yok,var,var,var,yok,var,var,var,yok,yok,var,yok,yok,var,yok,yok,yok,yok,yok,yok,yok,yok,var,yok,yok,var,var,yok,yok,yok,kademe_5,bilinmiyor,bilinmiyor,bilinmiyor,200_300_m2,7_oda_ve_ustu,orta_4_7_kat,2_banyo,dusuk,dusuk,dusuk,dusuk,yok,yuksek,yok,10_Milyon_TL_Ustu
Yozgat,Merkez,Satilik,0,5,Yerden_Isitma,bilinmiyor,yok,var,var,var,yok,var,yok,yok,var,yok,yok,yok,yok,yok,yok,yok,yok,yok,yok,yok,yok,yok,yok,yok,yok,var,yok,yok,yok,yok,kademe_5,iyi,iyi,bilinmiyor,50_75_m2,3_oda,orta_4_7_kat,1_banyo,dusuk,yok,yok,dusuk,orta,yuksek,yok,2_3_Milyon_TL_Arasi
Tokat,Niksar,Satilik,0,3,Yerden_Isitma,bilinmiyor,yok,var,var,yok,yok,yok,yok,var,yok,yok,yok,yok,yok,yok,yok,yok,yok,yok,yok,yok,yok,yok,var,yok,yok,var,yok,yok,yok,yok,kademe_5,iyi,iyi,bilinmiyor,75_100_m2,3_oda,orta_4_7_kat,1_banyo,yok,yok,yok,dusuk,orta,dusuk,yok,3_4_Milyon_TL_Arasi
Osmaniye,Merkez,Satilik,6_10_arasi,3,Klima,bilinmiyor,yok,var,var,yok,yok,var,var,var,yok,yok,yok,yok,yok,yok,yok,yok,yok,yok,yok,yok,yok,yok,yok,yok,yok,var,yok,yok,yok,yok,kademe_5,normal,kotu,kotu,125_150_m2,4_oda,orta_4_7_kat,2_banyo,yok,yok,yok,dusuk,yok,orta,yok,2_3_Milyon_TL_Arasi
Hatay,Arsuz,Satilik,6_10_arasi,2,Gunes_Enerjisi,bilinmiyor,yok,var,yok,var,yok,var,var,var,var,yok,var,var,yok,yok,yok,yok,yok,yok,yok,yok,yok,yok,yok,yok,yok,var,yok,yok,yok,yok,kademe_5,normal,normal,bilinmiyor,125_150_m2,4_oda,alcak_1_3_kat,2_banyo,yok,yok,dusuk,orta,orta,yuksek,yok,4_5_Milyon_TL_Arasi
Tokat,Merkez,Satilik,0,2,Kombi_Dogalgaz,bilinmiyor,yok,yok,yok,yok,yok,var,var,var,var,yok,yok,yok,yok,yok,yok,yok,yok,yok,yok,yok,yok,yok,yok,yok,yok,yok,yok,yok,yok,yok,kademe_5,normal,normal,normal,50_75_m2,2_oda,orta_4_7_kat,1_banyo,yok,yok,yok,dusuk,yok,yok,yok,2_3_Milyon_TL_Arasi
Hatay,Defne,Satilik,6_10_arasi,3,Kombi,bilinmiyor,yok,var,var,var,yok,yok,var,var,yok,yok,var,var,yok,var,yok,yok,yok,yok,yok,yok,yok,yok,yok,yok,yok,var,var,yok,yok,yok,kademe_5,iyi,kotu,kotu,200_300_m2,6_oda,orta_4_7_kat,3_banyo_ve_ustu,yok,orta,dusuk,orta,yuksek,yuksek,yok,4_5_Milyon_TL_Arasi
Tokat,Niksar,Satilik,0,3,Kombi_Dogalgaz,bilinmiyor,yok,var,var,yok,yok,yok,yok,var,yok,yok,var,yok,yok,yok,yok,yok,yok,yok,yok,yok,yok,yok,yok,yok,yok,yok,yok,yok,yok,yok,kademe_5,iyi,iyi,bilinmiyor,50_75_m2,2_oda,orta_4_7_kat,1_banyo,yok,yok,yok,dusuk,orta,yok,yok,2_3_Milyon_TL_Arasi
Osmaniye,Duzici,Satilik,1_5_arasi,3,Kombi_Dogalgaz,bilinmiyor,yok,yok,yok,yok,yok,var,yok,var,var,yok,var,var,yok,var,yok,yok,yok,yok,yok,yok,yok,yok,yok,yok,yok,yok,yok,yok,yok,yok,kademe_5,kotu,iyi,bilinmiyor,150_200_m2,4_oda,orta_4_7_kat,2_banyo,dusuk,yok,yok,dusuk,yok,yuksek,yok,2_3_Milyon_TL_Arasi
Osmaniye,Merkez,Satilik,6_10_arasi,Bahce,Klima,bilinmiyor,yok,var,yok,yok,yok,yok,yok,yok,yok,yok,yok,yok,yok,yok,yok,yok,yok,yok,yok,yok,yok,yok,yok,yok,yok,yok,yok,yok,yok,yok,kademe_5,kotu,kotu,kotu,150_200_m2,4_oda,bilinmiyor,1_banyo,yok,yok,yok,dusuk,dusuk,dusuk,yok,5_7_Bucuk_Milyon_TL_Arasi
Hatay,Arsuz,Satilik,11_15_arasi,bilinmiyor,Klima,bilinmiyor,yok,yok,yok,yok,yok,yok,yok,yok,yok,yok,yok,yok,yok,yok,yok,yok,yok,yok,yok,yok,yok,yok,yok,yok,yok,yok,yok,var,yok,yok,kademe_5,iyi,kotu,bilinmiyor,300_m2_ve_ustu,4_oda,alcak_1_3_kat,3_banyo_ve_ustu,yok,yok,yok,dusuk,yok,dusuk,yok,10_Milyon_TL_Ustu
Tokat,Merkez,Satilik,6_10_arasi,Bahce,Kombi_Dogalgaz,bilinmiyor,yok,yok,var,yok,yok,yok,var,var,var,yok,yok,yok,yok,var,yok,yok,yok,yok,yok,yok,yok,yok,yok,yok,yok,var,yok,yok,yok,yok,kademe_5,normal,normal,bilinmiyor,50_75_m2,2_oda,orta_4_7_kat,1_banyo,yok,yok,yok,dusuk,orta,yuksek,yok,1_5_2_Milyon_TL_Arasi
Hatay,Belen,Satilik,21_25_arasi,1,Klima,bilinmiyor,yok,var,yok,yok,yok,var,var,var,var,yok,var,yok,yok,yok,yok,yok,yok,yok,yok,yok,yok,yok,yok,yok,yok,yok,yok,yok,yok,yok,kademe_5,normal,kotu,normal,125_150_m2,5_oda,orta_4_7_kat,1_banyo,yok,yok,yok,dusuk,orta,yuksek,yok,2_3_Milyon_TL_Arasi
Hatay,Defne,Satilik,6_10_arasi,4,Kombi_Dogalgaz,bilinmiyor,yok,var,var,var,yok,var,yok,yok,var,yok,var,var,yok,yok,yok,yok,yok,yok,yok,yok,yok,yok,yok,yok,yok,var,var,yok,yok,yok,kademe_5,normal,iyi,normal,200_300_m2,4_oda,orta_4_7_kat,3_banyo_ve_ustu,dusuk,dusuk,dusuk,dusuk,dusuk,yuksek,yok,4_5_Milyon_TL_Arasi
Bartin,Merkez,Satilik,6_10_arasi,2,Kombi,bilinmiyor,yok,var,var,var,yok,yok,yok,yok,yok,yok,yok,yok,yok,yok,yok,yok,yok,yok,yok,yok,yok,yok,yok,yok,yok,yok,yok,yok,yok,yok,kademe_5,kotu,kotu,normal,125_150_m2,4_oda,orta_4_7_kat,2_banyo,yok,yok,yok,dusuk,yok,yok,yok,5_7_Bucuk_Milyon_TL_Arasi
Kahramanmaras,Dulkadiroglu,Satilik,0,2,Kombi,bilinmiyor,yok,var,yok,var,yok,yok,yok,var,yok,yok,var,yok,yok,yok,yok,yok,yok,yok,yok,yok,yok,yok,yok,yok,yok,var,yok,yok,yok,yok,kademe_5,bilinmiyor,normal,bilinmiyor,75_100_m2,3_oda,orta_4_7_kat,2_banyo,dusuk,yok,yok,dusuk,orta,yuksek,yok,2_3_Milyon_TL_Arasi
Hatay,Iskenderun,Satilik,31_ve_uzeri,2,Klima,bilinmiyor,yok,var,yok,yok,yok,yok,yok,yok,yok,yok,var,yok,yok,yok,yok,yok,yok,yok,yok,yok,yok,yok,yok,yok,yok,yok,yok,yok,yok,yok,kademe_5,kotu,kotu,bilinmiyor,50_75_m2,2_oda,alcak_1_3_kat,1_banyo,yok,yok,yok,orta,yok,dusuk,yok,1_5_Milyon_TL_Alti
Hatay,Arsuz,Satilik,16_20_arasi,bilinmiyor,Klima,bilinmiyor,yok,var,yok,var,yok,var,var,var,var,yok,var,yok,yok,yok,yok,yok,yok,yok,yok,yok,yok,var,var,yok,yok,yok,yok,yok,yok,var,kademe_5,normal,bilinmiyor,bilinmiyor,200_300_m2,5_oda,orta_4_7_kat,2_banyo,dusuk,yok,yok,dusuk,yok,yuksek,yok,10_Milyon_TL_Ustu
Tokat,Merkez,Satilik,1_5_arasi,Yuksek_Giris,Yerden_Isitma,bilinmiyor,yok,yok,var,var,yok,yok,var,var,yok,yok,var,yok,yok,var,yok,yok,yok,yok,yok,yok,yok,yok,yok,yok,yok,yok,yok,yok,yok,yok,kademe_5,normal,kotu,normal,50_75_m2,3_oda,orta_4_7_kat,1_banyo,yok,yok,yok,dusuk,yok,orta,yok,2_3_Milyon_TL_Arasi
Hatay,Payas,Satilik,16_20_arasi,bilinmiyor,isitma_yok,bilinmiyor,yok,var,yok,var,yok,var,var,var,var,yok,yok,yok,yok,yok,yok,yok,yok,yok,yok,yok,yok,yok,yok,yok,yok,yok,yok,yok,yok,yok,kademe_5,normal,bilinmiyor,bilinmiyor,200_300_m2,4_oda,alcak_1_3_kat,1_banyo,yok,yok,yok,dusuk,dusuk,yok,yok,7_Bucuk_10_Milyon_TL_Arasi
Hatay,Antakya,Satilik,1_5_arasi,3,Kombi_Dogalgaz,bilinmiyor,yok,yok,yok,yok,yok,var,var,var,yok,yok,yok,yok,yok,yok,yok,yok,yok,yok,yok,yok,yok,yok,yok,yok,yok,yok,var,yok,yok,yok,kademe_5,normal,bilinmiyor,bilinmiyor,200_300_m2,7_oda_ve_ustu,orta_4_7_kat,2_banyo,yok,yok,yok,dusuk,yok,yok,yok,3_4_Milyon_TL_Arasi
Hatay,Arsuz,Satilik,16_20_arasi,Bahce,Klima,bilinmiyor,yok,var,yok,var,yok,yok,yok,yok,yok,yok,yok,yok,yok,yok,yok,yok,yok,yok,yok,yok,yok,yok,yok,yok,yok,yok,yok,yok,yok,yok,kademe_5,bilinmiyor,bilinmiyor,bilinmiyor,300_m2_ve_ustu,7_oda_ve_ustu,bilinmiyor,3_banyo_ve_ustu,yok,yok,yok,dusuk,yok,dusuk,yok,10_Milyon_TL_Ustu
Hatay,Iskenderun,Satilik,11_15_arasi,Yuksek_Giris,Kombi_Dogalgaz,bilinmiyor,yok,var,var,yok,yok,yok,var,yok,var,yok,var,yok,yok,var,yok,yok,yok,yok,yok,yok,yok,yok,yok,yok,yok,yok,yok,yok,yok,yok,kademe_5,kotu,normal,bilinmiyor,125_150_m2,4_oda,orta_4_7_kat,1_banyo,yok,yok,yok,dusuk,yok,yuksek,yok,2_3_Milyon_TL_Arasi
Nigde,Merkez,Satilik,0,5,Kombi_Dogalgaz,bilinmiyor,yok,var,var,var,yok,var,yok,var,var,yok,var,var,yok,yok,yok,yok,yok,yok,yok,yok,yok,yok,yok,yok,yok,yok,yok,yok,yok,yok,kademe_5,iyi,bilinmiyor,bilinmiyor,150_200_m2,4_oda,orta_4_7_kat,bilinmiyor,dusuk,yok,yok,dusuk,dusuk,orta,yok,4_5_Milyon_TL_Arasi
Tokat,Merkez,Satilik,1_5_arasi,1,Kombi,bilinmiyor,yok,var,var,var,yok,yok,yok,yok,yok,yok,yok,yok,yok,yok,yok,yok,yok,yok,yok,yok,yok,yok,yok,yok,yok,yok,yok,yok,yok,yok,kademe_5,iyi,iyi,bilinmiyor,150_200_m2,4_oda,orta_4_7_kat,1_banyo,yok,yok,yok,dusuk,yok,yok,yok,5_7_Bucuk_Milyon_TL_Arasi
Hatay,Antakya,Satilik,21_25_arasi,Zemin,Kat_Kaloriferi,bilinmiyor,yok,var,yok,var,yok,yok,yok,yok,yok,yok,yok,yok,yok,yok,yok,yok,yok,yok,yok,yok,yok,yok,yok,yok,yok,var,yok,yok,yok,yok,kademe_5,kotu,normal,normal,100_125_m2,3_oda,orta_4_7_kat,1_banyo,yok,yok,yok,dusuk,orta,dusuk,yok,2_3_Milyon_TL_Arasi
Nigde,Merkez,Satilik,0,2,Merkezi,bilinmiyor,yok,var,var,var,yok,yok,yok,yok,yok,yok,yok,yok,yok,yok,yok,yok,yok,yok,yok,yok,yok,yok,yok,yok,yok,yok,yok,yok,yok,yok,kademe_5,normal,iyi,kotu,75_100_m2,3_oda,orta_4_7_kat,1_banyo,yok,yok,yok,dusuk,yok,yok,yok,3_4_Milyon_TL_Arasi
Bartin,Merkez,Satilik,11_15_arasi,Ara_Kat,Kombi_Dogalgaz,bilinmiyor,yok,var,yok,var,yok,yok,yok,yok,yok,yok,yok,yok,yok,yok,yok,yok,yok,yok,yok,yok,yok,yok,yok,yok,yok,yok,yok,yok,yok,yok,kademe_5,normal,normal,bilinmiyor,125_150_m2,4_oda,orta_4_7_kat,1_banyo,yok,yok,yok,dusuk,yok,yok,yok,5_7_Bucuk_Milyon_TL_Arasi
Yozgat,Merkez,Satilik,16_20_arasi,1,Kombi,bilinmiyor,yok,var,var,var,yok,yok,var,var,yok,yok,yok,yok,yok,yok,yok,yok,yok,yok,yok,yok,yok,yok,var,yok,yok,var,yok,yok,yok,yok,kademe_5,normal,kotu,normal,125_150_m2,4_oda,orta_4_7_kat,2_banyo,dusuk,yok,dusuk,dusuk,yuksek,orta,yok,2_3_Milyon_TL_Arasi
Hatay,Arsuz,Satilik,1_5_arasi,Ara_Kat,Klima,bilinmiyor,yok,var,yok,yok,yok,var,var,var,var,yok,yok,yok,yok,yok,yok,yok,yok,yok,yok,yok,yok,yok,yok,yok,yok,yok,yok,yok,yok,yok,kademe_5,iyi,normal,kotu,100_125_m2,3_oda,orta_4_7_kat,1_banyo,yok,yok,yok,dusuk,yok,dusuk,yok,4_5_Milyon_TL_Arasi
Tokat,Merkez,Satilik,11_15_arasi,2,Kombi_Dogalgaz,bilinmiyor,yok,var,yok,yok,yok,var,var,var,var,yok,yok,yok,yok,yok,yok,yok,yok,yok,yok,yok,yok,yok,yok,yok,yok,yok,yok,yok,yok,yok,kademe_5,iyi,normal,bilinmiyor,125_150_m2,4_oda,orta_4_7_kat,1_banyo,yok,yok,yok,dusuk,yok,yok,yok,4_5_Milyon_TL_Arasi
Erzurum,Yakutiye,Satilik,11_15_arasi,En_Ust_Kat,Kombi,bilinmiyor,yok,var,var,var,yok,yok,yok,yok,yok,yok,yok,yok,yok,yok,yok,yok,yok,yok,yok,yok,yok,yok,yok,yok,yok,yok,yok,yok,yok,yok,kademe_5,bilinmiyor,bilinmiyor,bilinmiyor,200_300_m2,5_oda,orta_4_7_kat,1_banyo,yok,yok,yok,dusuk,yok,yok,yok,4_5_Milyon_TL_Arasi
Kahramanmaras,Onikisubat,Satilik,1_5_arasi,3,Merkezi,bilinmiyor,yok,var,var,var,yok,var,yok,var,yok,yok,var,yok,yok,var,yok,yok,yok,yok,var,yok,yok,yok,yok,yok,yok,yok,yok,yok,yok,yok,kademe_5,iyi,iyi,kotu,300_m2_ve_ustu,6_oda,yuksek_8_15_kat,2_banyo,yok,dusuk,dusuk,dusuk,yuksek,yuksek,yok,7_Bucuk_10_Milyon_TL_Arasi
Hatay,Defne,Satilik,6_10_arasi,4,Kombi_Dogalgaz,bilinmiyor,yok,var,var,yok,yok,yok,var,var,yok,yok,var,yok,yok,var,yok,yok,yok,yok,yok,yok,yok,yok,yok,yok,yok,yok,yok,yok,yok,yok,kademe_5,normal,normal,iyi,100_125_m2,3_oda,orta_4_7_kat,1_banyo,yok,yok,yok,dusuk,yok,yuksek,yok,2_3_Milyon_TL_Arasi
Hatay,Arsuz,Satilik,26_30_arasi,bilinmiyor,Klima,bilinmiyor,yok,yok,yok,yok,yok,var,var,var,var,yok,yok,yok,yok,yok,yok,yok,yok,yok,yok,yok,yok,yok,yok,yok,yok,yok,yok,yok,yok,var,kademe_5,kotu,iyi,kotu,300_m2_ve_ustu,5_oda,orta_4_7_kat,2_banyo,yok,yok,yok,dusuk,yok,dusuk,yok,10_Milyon_TL_Ustu
Tokat,Niksar,Satilik,16_20_arasi,bilinmiyor,Dogalgaz_Sobasi,bilinmiyor,yok,var,yok,var,yok,var,var,var,var,yok,var,yok,yok,var,yok,yok,yok,yok,yok,yok,yok,yok,var,yok,yok,var,yok,yok,yok,yok,kademe_5,bilinmiyor,bilinmiyor,bilinmiyor,300_m2_ve_ustu,7_oda_ve_ustu,orta_4_7_kat,3_banyo_ve_ustu,yok,yok,yok,orta,orta,dusuk,yok,10_Milyon_TL_Ustu
Tokat,Merkez,Satilik,11_15_arasi,2,Kombi,bilinmiyor,yok,var,var,var,yok,var,var,var,var,yok,yok,yok,yok,yok,yok,yok,yok,yok,yok,yok,yok,yok,var,yok,yok,var,yok,yok,yok,yok,kademe_5,iyi,bilinmiyor,normal,150_200_m2,4_oda,orta_4_7_kat,1_banyo,dusuk,yok,dusuk,dusuk,orta,yok,yok,5_7_Bucuk_Milyon_TL_Arasi
Kahramanmaras,Onikisubat,Satilik,6_10_arasi,1,bilinmiyor,bilinmiyor,yok,var,var,yok,yok,yok,yok,yok,yok,yok,yok,yok,yok,yok,yok,yok,yok,yok,yok,yok,yok,yok,yok,yok,yok,yok,yok,yok,yok,yok,kademe_5,iyi,iyi,bilinmiyor,125_150_m2,5_oda,alcak_1_3_kat,1_banyo,yok,yok,yok,dusuk,yok,yok,yok,4_5_Milyon_TL_Arasi
Nigde,Merkez,Satilik,16_20_arasi,4,Merkezi,bilinmiyor,yok,var,var,var,yok,var,var,yok,yok,yok,yok,yok,yok,yok,yok,yok,yok,yok,yok,yok,yok,yok,yok,yok,yok,yok,yok,yok,yok,yok,kademe_5,bilinmiyor,kotu,bilinmiyor,100_125_m2,3_oda,orta_4_7_kat,1_banyo,yok,yok,yok,dusuk,yok,yok,yok,3_4_Milyon_TL_Arasi
Hatay,Yayladagi,Satilik,1_5_arasi,Bahce,Soba,bilinmiyor,yok,yok,yok,var,var,var,var,var,var,yok,yok,yok,yok,yok,yok,yok,yok,yok,yok,yok,yok,yok,yok,yok,yok,yok,yok,yok,yok,yok,kademe_5,bilinmiyor,normal,bilinmiyor,125_150_m2,3_oda,alcak_1_3_kat,1_banyo,yok,yok,yok,dusuk,yok,yok,yok,5_7_Bucuk_Milyon_TL_Arasi
Yozgat,Merkez,Satilik,21_25_arasi,3,Merkezi,bilinmiyor,yok,var,var,var,yok,yok,yok,yok,yok,yok,var,yok,yok,var,yok,yok,yok,yok,yok,yok,yok,yok,var,yok,yok,var,yok,yok,yok,yok,kademe_5,normal,iyi,bilinmiyor,125_150_m2,4_oda,yuksek_8_15_kat,1_banyo,dusuk,yok,yok,dusuk,yok,yuksek,yok,3_4_Milyon_TL_Arasi
Nigde,Altunhisar,Satilik,6_10_arasi,3,Merkezi,bilinmiyor,yok,yok,yok,yok,yok,yok,yok,yok,yok,yok,yok,yok,yok,yok,yok,yok,yok,yok,yok,yok,yok,yok,yok,yok,yok,yok,yok,yok,yok,yok,kademe_5,bilinmiyor,bilinmiyor,bilinmiyor,50_75_m2,3_oda,orta_4_7_kat,1_banyo,yok,yok,yok,dusuk,yok,yok,yok,1_5_Milyon_TL_Alti
Tokat,Niksar,Satilik,1_5_arasi,Ara_Kat,Kombi_Dogalgaz,bilinmiyor,yok,var,var,var,yok,yok,yok,var,var,yok,var,var,yok,yok,yok,yok,yok,var,yok,yok,yok,yok,yok,yok,yok,yok,yok,yok,yok,yok,kademe_5,normal,bilinmiyor,normal,150_200_m2,4_oda,alcak_1_3_kat,2_banyo,dusuk,yok,yok,dusuk,yok,orta,yok,4_5_Milyon_TL_Arasi
Tokat,Merkez,Satilik,0,2,Kombi,bilinmiyor,yok,var,var,yok,yok,yok,yok,yok,yok,yok,yok,yok,yok,yok,yok,yok,yok,yok,yok,yok,yok,yok,yok,yok,yok,yok,yok,yok,yok,yok,kademe_5,iyi,bilinmiyor,kotu,0_50_m2,2_oda,orta_4_7_kat,1_banyo,yok,yok,yok,dusuk,yok,yok,yok,2_3_Milyon_TL_Arasi
Hatay,Defne,Satilik,1_5_arasi,Yuksek_Giris,Kombi,bilinmiyor,yok,var,var,var,yok,var,var,var,yok,yok,yok,yok,yok,yok,yok,yok,yok,yok,yok,yok,yok,yok,yok,yok,yok,yok,yok,yok,yok,yok,kademe_5,bilinmiyor,iyi,bilinmiyor,100_125_m2,3_oda,orta_4_7_kat,1_banyo,yok,yok,dusuk,orta,orta,yok,yok,2_3_Milyon_TL_Arasi
Hatay,Antakya,Satilik,0,2,Kombi_Dogalgaz,bilinmiyor,yok,var,var,yok,yok,var,var,var,var,yok,var,yok,yok,var,yok,yok,yok,yok,yok,yok,yok,yok,yok,yok,yok,var,yok,yok,yok,yok,kademe_5,iyi,normal,bilinmiyor,125_150_m2,4_oda,orta_4_7_kat,1_banyo,dusuk,dusuk,yok,dusuk,orta,yuksek,yok,5_7_Bucuk_Milyon_TL_Arasi
Erzurum,Horasan,Satilik,6_10_arasi,5,Kombi,bilinmiyor,yok,yok,yok,yok,yok,yok,yok,yok,yok,yok,yok,yok,yok,yok,yok,yok,yok,yok,yok,yok,yok,yok,yok,yok,yok,yok,yok,yok,yok,yok,kademe_5,normal,bilinmiyor,iyi,200_300_m2,7_oda_ve_ustu,yuksek_8_15_kat,1_banyo,yok,yok,yok,dusuk,yok,yok,yok,3_4_Milyon_TL_Arasi
Hatay,Iskenderun,Satilik,6_10_arasi,Yuksek_Giris,Kombi_Dogalgaz,bilinmiyor,yok,var,yok,yok,yok,var,yok,var,yok,yok,var,yok,yok,yok,yok,yok,yok,yok,yok,yok,yok,yok,yok,yok,yok,var,yok,yok,yok,yok,kademe_5,normal,iyi,bilinmiyor,200_300_m2,4_oda,orta_4_7_kat,1_banyo,yok,yok,yok,dusuk,dusuk,orta,yok,4_5_Milyon_TL_Arasi
Yozgat,Merkez,Satilik,21_25_arasi,4,Kombi_Dogalgaz,bilinmiyor,yok,var,var,yok,yok,yok,yok,yok,yok,yok,var,yok,yok,yok,yok,yok,yok,yok,yok,yok,yok,yok,yok,yok,yok,var,yok,yok,yok,yok,kademe_5,kotu,normal,bilinmiyor,125_150_m2,3_oda,orta_4_7_kat,1_banyo,yok,yok,yok,orta,dusuk,yuksek,yok,1_5_2_Milyon_TL_Arasi
Nigde,Merkez,Satilik,31_ve_uzeri,4,Kombi,bilinmiyor,yok,var,yok,var,yok,yok,var,var,var,yok,var,yok,yok,var,yok,yok,yok,yok,yok,yok,yok,yok,yok,yok,yok,var,yok,yok,yok,yok,kademe_5,kotu,kotu,kotu,100_125_m2,3_oda,orta_4_7_kat,1_banyo,yok,dusuk,yok,orta,orta,yuksek,yok,3_4_Milyon_TL_Arasi
Kahramanmaras,Onikisubat,Satilik,0,1,Kombi,bilinmiyor,yok,var,var,var,var,yok,yok,yok,yok,yok,yok,yok,yok,yok,yok,yok,yok,yok,yok,yok,yok,yok,yok,yok,yok,yok,yok,yok,yok,yok,kademe_5,normal,iyi,kotu,75_100_m2,3_oda,orta_4_7_kat,2_banyo,yok,yok,yok,dusuk,yok,yok,yok,3_4_Milyon_TL_Arasi
Hatay,Antakya,Satilik,11_15_arasi,2,Kombi,bilinmiyor,yok,var,yok,var,var,var,var,var,var,yok,yok,yok,yok,yok,yok,yok,yok,yok,yok,yok,yok,yok,yok,yok,yok,yok,yok,yok,yok,yok,kademe_5,normal,normal,bilinmiyor,125_150_m2,4_oda,orta_4_7_kat,1_banyo,yok,yok,yok,dusuk,yok,yok,yok,1_5_2_Milyon_TL_Arasi
Tokat,Turhal,Satilik,0,Yuksek_Giris,Kombi,bilinmiyor,yok,var,var,var,yok,yok,var,var,yok,yok,yok,yok,yok,var,yok,yok,yok,yok,yok,yok,yok,yok,yok,yok,yok,var,yok,yok,yok,yok,kademe_5,normal,bilinmiyor,bilinmiyor,100_125_m2,3_oda,orta_4_7_kat,1_banyo,yok,yok,yok,dusuk,dusuk,dusuk,yok,3_4_Milyon_TL_Arasi
Nigde,Camardi,Satilik,1_5_arasi,Zemin,Soba,bilinmiyor,yok,var,yok,yok,var,var,var,var,var,yok,yok,yok,yok,yok,yok,yok,yok,yok,yok,yok,yok,yok,yok,yok,yok,yok,yok,yok,yok,yok,kademe_5,kotu,kotu,kotu,300_m2_ve_ustu,3_oda,alcak_1_3_kat,1_banyo,yok,yok,yok,dusuk,yok,yok,yok,4_5_Milyon_TL_Arasi
Bartin,Amasra,Satilik,11_15_arasi,3,Kombi,bilinmiyor,yok,var,yok,var,yok,var,var,var,yok,yok,var,yok,yok,var,yok,yok,yok,yok,var,yok,yok,yok,yok,yok,yok,var,yok,yok,yok,yok,kademe_5,normal,normal,kotu,100_125_m2,3_oda,orta_4_7_kat,1_banyo,dusuk,dusuk,yok,dusuk,orta,yuksek,yok,4_5_Milyon_TL_Arasi
Hatay,Defne,Satilik,11_15_arasi,3,Kombi,bilinmiyor,yok,var,var,var,yok,var,yok,yok,var,yok,yok,yok,yok,yok,yok,yok,yok,yok,yok,yok,yok,yok,var,yok,yok,var,yok,yok,yok,yok,kademe_5,iyi,normal,bilinmiyor,150_200_m2,4_oda,orta_4_7_kat,2_banyo,yok,yok,yok,orta,dusuk,dusuk,yok,3_4_Milyon_TL_Arasi
Osmaniye,Merkez,Satilik,26_30_arasi,bilinmiyor,Soba,bilinmiyor,yok,yok,yok,var,var,var,var,var,var,yok,var,yok,yok,yok,yok,yok,yok,yok,yok,yok,yok,yok,var,yok,yok,var,yok,yok,yok,yok,kademe_5,kotu,kotu,kotu,200_300_m2,6_oda,alcak_1_3_kat,1_banyo,yok,yok,yok,dusuk,yok,orta,yok,2_3_Milyon_TL_Arasi
Hatay,Iskenderun,Satilik,21_25_arasi,2,Klima,bilinmiyor,yok,yok,yok,yok,yok,var,var,yok,yok,yok,yok,yok,yok,yok,yok,yok,yok,yok,yok,yok,yok,var,yok,yok,yok,yok,yok,yok,yok,yok,kademe_5,normal,kotu,bilinmiyor,200_300_m2,5_oda,orta_4_7_kat,1_banyo,yok,yok,yok,dusuk,yok,orta,yok,4_5_Milyon_TL_Arasi
Tokat,Zile,Satilik,1_5_arasi,2,Kombi,bilinmiyor,yok,yok,yok,yok,yok,yok,yok,yok,yok,yok,yok,yok,yok,yok,yok,yok,yok,yok,yok,yok,yok,yok,yok,yok,yok,yok,yok,yok,yok,yok,kademe_5,normal,bilinmiyor,bilinmiyor,50_75_m2,3_oda,orta_4_7_kat,1_banyo,yok,yok,yok,dusuk,yok,yok,yok,2_3_Milyon_TL_Arasi
Hatay,Arsuz,Satilik,6_10_arasi,2,Klima,bilinmiyor,yok,var,yok,yok,yok,yok,yok,yok,var,yok,var,yok,yok,var,yok,yok,yok,yok,yok,yok,yok,yok,yok,yok,yok,yok,yok,yok,yok,yok,kademe_5,normal,normal,bilinmiyor,125_150_m2,4_oda,orta_4_7_kat,1_banyo,yok,yok,yok,dusuk,yok,yuksek,yok,3_4_Milyon_TL_Arasi
Osmaniye,Merkez,Satilik,6_10_arasi,Yuksek_Giris,Klima,bilinmiyor,yok,yok,var,var,var,yok,var,yok,yok,yok,var,yok,yok,var,yok,yok,yok,yok,yok,yok,yok,yok,yok,yok,yok,yok,yok,yok,yok,yok,kademe_5,kotu,normal,normal,50_75_m2,2_oda,orta_4_7_kat,1_banyo,yok,yok,dusuk,dusuk,orta,orta,yok,1_5_Milyon_TL_Alti
Hatay,Antakya,Satilik,11_15_arasi,4,Merkezi,bilinmiyor,yok,var,var,var,var,var,var,var,var,yok,var,yok,yok,var,yok,yok,yok,yok,yok,yok,yok,yok,yok,yok,yok,var,yok,yok,yok,yok,kademe_5,normal,bilinmiyor,kotu,125_150_m2,4_oda,yuksek_8_15_kat,1_banyo,dusuk,dusuk,dusuk,orta,yuksek,yuksek,yok,2_3_Milyon_TL_Arasi
Hatay,Dortyol,Satilik,1_5_arasi,1,Klima,bilinmiyor,yok,yok,var,var,var,var,yok,yok,var,yok,var,yok,yok,var,yok,yok,yok,yok,yok,yok,yok,yok,var,yok,yok,var,yok,yok,yok,yok,kademe_5,iyi,normal,bilinmiyor,50_75_m2,2_oda,orta_4_7_kat,1_banyo,dusuk,dusuk,dusuk,dusuk,yuksek,yuksek,yok,2_3_Milyon_TL_Arasi
Hatay,Iskenderun,Satilik,0,4,Kombi,bilinmiyor,yok,var,yok,var,yok,var,yok,var,yok,yok,var,yok,yok,yok,yok,yok,yok,yok,yok,yok,yok,yok,yok,yok,yok,var,yok,yok,yok,yok,kademe_5,bilinmiyor,bilinmiyor,bilinmiyor,125_150_m2,4_oda,orta_4_7_kat,1_banyo,yok,yok,dusuk,dusuk,orta,dusuk,yok,4_5_Milyon_TL_Arasi
Hatay,Arsuz,Satilik,6_10_arasi,Bahce,isitma_yok,bilinmiyor,yok,var,yok,var,yok,yok,var,var,var,yok,yok,yok,yok,yok,yok,yok,yok,yok,yok,yok,yok,yok,yok,yok,yok,yok,yok,yok,yok,yok,kademe_5,iyi,iyi,kotu,100_125_m2,3_oda,orta_4_7_kat,2_banyo,yok,yok,yok,dusuk,yok,yok,yok,3_4_Milyon_TL_Arasi
Hatay,Arsuz,Satilik,1_5_arasi,5,Kombi_Dogalgaz,bilinmiyor,yok,var,var,var,yok,yok,var,var,yok,yok,var,yok,yok,yok,yok,yok,yok,yok,yok,yok,yok,yok,yok,yok,yok,var,yok,yok,yok,yok,kademe_5,iyi,normal,bilinmiyor,150_200_m2,4_oda,orta_4_7_kat,2_banyo,dusuk,yok,yok,dusuk,dusuk,yuksek,yok,5_7_Bucuk_Milyon_TL_Arasi
Bartin,Merkez,Satilik,16_20_arasi,1,Kombi,bilinmiyor,yok,var,var,var,yok,yok,yok,yok,yok,yok,yok,yok,yok,var,yok,yok,yok,yok,yok,yok,yok,yok,var,yok,yok,var,yok,yok,yok,yok,kademe_5,normal,iyi,kotu,100_125_m2,3_oda,orta_4_7_kat,1_banyo,yok,yok,yok,dusuk,yuksek,orta,yok,2_3_Milyon_TL_Arasi
Erzurum,Yakutiye,Satilik,1_5_arasi,2,Kombi,bilinmiyor,yok,yok,yok,yok,yok,yok,yok,yok,yok,yok,yok,yok,yok,yok,yok,yok,yok,yok,yok,yok,yok,yok,yok,yok,yok,yok,yok,yok,yok,yok,kademe_5,bilinmiyor,bilinmiyor,bilinmiyor,150_200_m2,5_oda,yuksek_8_15_kat,1_banyo,yok,yok,yok,dusuk,yok,yok,yok,5_7_Bucuk_Milyon_TL_Arasi
Tokat,Zile,Satilik,1_5_arasi,3,Kombi,bilinmiyor,yok,var,yok,var,yok,yok,yok,yok,yok,yok,yok,yok,yok,yok,yok,yok,yok,yok,yok,yok,yok,yok,yok,yok,yok,yok,yok,yok,yok,yok,kademe_5,iyi,bilinmiyor,bilinmiyor,125_150_m2,4_oda,yuksek_8_15_kat,2_banyo,yok,yok,yok,dusuk,yok,yok,yok,4_5_Milyon_TL_Arasi
Kahramanmaras,Onikisubat,Satilik,6_10_arasi,1,bilinmiyor,bilinmiyor,yok,var,var,var,yok,yok,yok,yok,yok,yok,yok,yok,yok,yok,yok,yok,yok,yok,yok,yok,yok,yok,yok,yok,yok,yok,yok,yok,yok,yok,kademe_5,bilinmiyor,bilinmiyor,bilinmiyor,150_200_m2,5_oda,alcak_1_3_kat,2_banyo,yok,yok,yok,dusuk,yok,yok,yok,5_7_Bucuk_Milyon_TL_Arasi
Bartin,Amasra,Satilik,26_30_arasi,Bahce,Soba,bilinmiyor,yok,var,yok,yok,yok,yok,yok,var,var,yok,yok,yok,yok,yok,yok,yok,yok,yok,yok,yok,yok,yok,var,yok,yok,yok,yok,yok,yok,yok,kademe_5,bilinmiyor,bilinmiyor,bilinmiyor,300_m2_ve_ustu,3_oda,bilinmiyor,1_banyo,yok,yok,yok,dusuk,yok,yok,yok,4_5_Milyon_TL_Arasi
Hatay,Reyhanli,Satilik,1_5_arasi,2,Kombi_Dogalgaz,bilinmiyor,yok,var,var,var,yok,yok,yok,var,yok,yok,var,var,yok,var,yok,yok,yok,yok,yok,yok,yok,yok,var,yok,yok,var,yok,yok,yok,yok,kademe_5,iyi,normal,normal,200_300_m2,5_oda,orta_4_7_kat,2_banyo,dusuk,dusuk,yok,orta,orta,yuksek,yok,3_4_Milyon_TL_Arasi
Kahramanmaras,Onikisubat,Satilik,0,1,Merkezi,bilinmiyor,yok,var,yok,var,yok,yok,var,var,var,yok,yok,yok,yok,yok,yok,yok,yok,yok,yok,yok,yok,yok,yok,yok,yok,yok,yok,yok,yok,yok,kademe_5,normal,iyi,bilinmiyor,200_300_m2,6_oda,yuksek_8_15_kat,2_banyo,yok,yok,yok,dusuk,yok,yok,yok,7_Bucuk_10_Milyon_TL_Arasi
Hatay,Dortyol,Satilik,1_5_arasi,4,Kombi,bilinmiyor,yok,var,var,var,yok,var,yok,yok,var,yok,var,var,yok,yok,yok,yok,yok,yok,yok,yok,yok,yok,yok,yok,yok,yok,yok,yok,yok,yok,kademe_5,iyi,normal,bilinmiyor,150_200_m2,4_oda,yuksek_8_15_kat,2_banyo,dusuk,dusuk,dusuk,dusuk,orta,yuksek,yok,4_5_Milyon_TL_Arasi
Yozgat,Sorgun,Satilik,21_25_arasi,bilinmiyor,Soba,bilinmiyor,yok,yok,yok,yok,yok,yok,yok,yok,yok,yok,yok,yok,yok,yok,yok,yok,yok,yok,yok,yok,yok,yok,yok,yok,yok,var,yok,yok,yok,yok,kademe_5,kotu,bilinmiyor,bilinmiyor,150_200_m2,4_oda,alcak_1_3_kat,1_banyo,yok,yok,yok,dusuk,dusuk,yok,yok,4_5_Milyon_TL_Arasi
Hatay,Iskenderun,Satilik,11_15_arasi,3,Klima,bilinmiyor,yok,var,var,yok,yok,yok,yok,yok,yok,yok,yok,yok,yok,yok,yok,yok,yok,yok,yok,yok,yok,yok,yok,yok,yok,yok,yok,yok,yok,yok,kademe_5,kotu,normal,normal,100_125_m2,3_oda,orta_4_7_kat,1_banyo,yok,yok,yok,dusuk,yok,orta,yok,3_4_Milyon_TL_Arasi
Hatay,Iskenderun,Satilik,21_25_arasi,1,Klima,bilinmiyor,yok,var,yok,var,yok,var,var,var,yok,yok,yok,yok,yok,yok,yok,yok,yok,yok,yok,yok,yok,yok,yok,yok,yok,var,yok,yok,yok,yok,kademe_5,normal,bilinmiyor,bilinmiyor,100_125_m2,3_oda,orta_4_7_kat,1_banyo,yok,yok,yok,dusuk,orta,orta,yok,2_3_Milyon_TL_Arasi
Hatay,Dortyol,Satilik,6_10_arasi,3,Kombi_Dogalgaz,bilinmiyor,yok,var,var,var,yok,yok,var,yok,yok,yok,var,yok,yok,yok,yok,yok,yok,yok,yok,yok,yok,yok,yok,yok,yok,var,yok,yok,yok,yok,kademe_5,kotu,normal,bilinmiyor,150_200_m2,4_oda,orta_4_7_kat,1_banyo,dusuk,yok,yok,dusuk,dusuk,orta,yok,2_3_Milyon_TL_Arasi
Hatay,Iskenderun,Satilik,11_15_arasi,3,Kombi_Dogalgaz,bilinmiyor,yok,var,yok,var,yok,yok,yok,yok,yok,yok,var,yok,yok,var,yok,yok,yok,yok,yok,yok,yok,yok,yok,yok,yok,yok,yok,yok,yok,yok,kademe_5,normal,normal,normal,125_150_m2,4_oda,orta_4_7_kat,1_banyo,yok,yok,yok,orta,orta,yuksek,yok,4_5_Milyon_TL_Arasi
Kahramanmaras,Onikisubat,Satilik,0,7,Merkezi,bilinmiyor,yok,var,yok,var,yok,var,yok,var,var,yok,var,var,yok,var,yok,yok,yok,yok,yok,yok,yok,yok,var,yok,yok,var,yok,yok,yok,yok,kademe_5,iyi,iyi,iyi,150_200_m2,4_oda,yuksek_8_15_kat,2_banyo,dusuk,dusuk,dusuk,orta,orta,yuksek,yok,5_7_Bucuk_Milyon_TL_Arasi
Hatay,Iskenderun,Satilik,1_5_arasi,3,Klima,bilinmiyor,yok,yok,yok,yok,var,yok,yok,var,yok,yok,yok,yok,yok,yok,yok,yok,yok,yok,yok,yok,yok,yok,yok,yok,yok,yok,yok,yok,yok,yok,kademe_5,normal,bilinmiyor,bilinmiyor,50_75_m2,2_oda,orta_4_7_kat,1_banyo,yok,yok,yok,dusuk,yok,dusuk,yok,4_5_Milyon_TL_Arasi
Hatay,Antakya,Satilik,1_5_arasi,En_Ust_Kat,Kombi,bilinmiyor,yok,var,var,yok,yok,yok,yok,yok,yok,yok,yok,yok,yok,yok,yok,yok,yok,yok,yok,yok,yok,yok,yok,yok,yok,yok,yok,yok,var,yok,kademe_5,iyi,normal,bilinmiyor,100_125_m2,3_oda,orta_4_7_kat,1_banyo,yok,yok,yok,dusuk,yok,yok,yok,2_3_Milyon_TL_Arasi
Hatay,Payas,Satilik,11_15_arasi,En_Ust_Kat,Kombi_Dogalgaz,bilinmiyor,yok,yok,yok,yok,yok,yok,yok,yok,yok,yok,yok,yok,yok,yok,yok,yok,yok,yok,yok,yok,yok,yok,yok,yok,yok,yok,yok,yok,yok,yok,kademe_5,normal,normal,kotu,100_125_m2,4_oda,orta_4_7_kat,1_banyo,yok,yok,yok,dusuk,yok,yok,yok,3_4_Milyon_TL_Arasi
Erzurum,Aziziye,Satilik,1_5_arasi,1,bilinmiyor,bilinmiyor,yok,yok,yok,yok,yok,yok,yok,yok,yok,yok,yok,yok,yok,yok,yok,yok,yok,yok,yok,yok,yok,yok,yok,yok,yok,yok,yok,yok,yok,yok,kademe_5,bilinmiyor,bilinmiyor,bilinmiyor,50_75_m2,2_oda,alcak_1_3_kat,1_banyo,yok,yok,yok,dusuk,yok,yok,yok,2_3_Milyon_TL_Arasi
Yozgat,Sarikaya,Satilik,1_5_arasi,bilinmiyor,Soba,bilinmiyor,yok,yok,yok,yok,var,yok,yok,var,yok,yok,yok,yok,yok,yok,yok,yok,yok,yok,yok,yok,yok,yok,yok,yok,yok,yok,yok,yok,yok,yok,kademe_5,normal,kotu,bilinmiyor,300_m2_ve_ustu,4_oda,alcak_1_3_kat,1_banyo,yok,yok,yok,dusuk,yok,yok,yok,5_7_Bucuk_Milyon_TL_Arasi
Nigde,Merkez,Satilik,0,3,Kombi,bilinmiyor,yok,var,var,var,yok,yok,var,var,yok,yok,var,yok,yok,var,yok,yok,yok,yok,yok,yok,yok,yok,var,yok,yok,var,yok,yok,yok,yok,kademe_5,iyi,bilinmiyor,kotu,100_125_m2,3_oda,orta_4_7_kat,1_banyo,dusuk,yok,yok,dusuk,orta,orta,yok,2_3_Milyon_TL_Arasi
Hatay,Arsuz,Satilik,6_10_arasi,2,Kombi_Dogalgaz,bilinmiyor,yok,var,var,yok,var,yok,yok,yok,yok,yok,yok,yok,yok,yok,yok,yok,yok,yok,yok,yok,yok,yok,yok,yok,yok,yok,yok,yok,yok,yok,kademe_5,normal,kotu,bilinmiyor,100_125_m2,3_oda,orta_4_7_kat,2_banyo,yok,yok,yok,dusuk,yok,yok,yok,4_5_Milyon_TL_Arasi
Osmaniye,Merkez,Satilik,6_10_arasi,1,Kombi_Dogalgaz,bilinmiyor,yok,var,var,var,yok,yok,yok,yok,yok,yok,var,var,yok,yok,yok,yok,yok,yok,yok,yok,yok,yok,var,yok,yok,var,yok,yok,yok,yok,kademe_5,normal,normal,kotu,150_200_m2,4_oda,orta_4_7_kat,2_banyo,yok,dusuk,yok,orta,dusuk,orta,yok,4_5_Milyon_TL_Arasi
Tokat,Niksar,Satilik,1_5_arasi,Yuksek_Giris,Kombi,bilinmiyor,yok,var,var,var,yok,yok,yok,yok,yok,yok,var,yok,yok,var,yok,yok,yok,yok,yok,yok,yok,yok,yok,yok,yok,var,yok,yok,yok,yok,kademe_5,iyi,bilinmiyor,kotu,50_75_m2,2_oda,orta_4_7_kat,1_banyo,yok,yok,yok,dusuk,dusuk,yuksek,yok,2_3_Milyon_TL_Arasi
Nigde,Merkez,Satilik,11_15_arasi,5,Merkezi,bilinmiyor,yok,var,var,var,yok,yok,var,var,var,yok,yok,yok,yok,yok,yok,yok,yok,yok,yok,yok,yok,yok,yok,yok,yok,yok,yok,yok,yok,yok,kademe_5,iyi,normal,iyi,150_200_m2,4_oda,yuksek_8_15_kat,1_banyo,yok,yok,yok,dusuk,yok,yok,yok,5_7_Bucuk_Milyon_TL_Arasi
Hatay,Iskenderun,Satilik,1_5_arasi,4,Klima,bilinmiyor,yok,var,var,var,yok,yok,yok,yok,yok,yok,yok,yok,yok,yok,yok,yok,yok,yok,yok,yok,yok,yok,yok,yok,yok,yok,yok,yok,yok,yok,kademe_5,kotu,bilinmiyor,iyi,150_200_m2,3_oda,orta_4_7_kat,2_banyo,yok,yok,yok,dusuk,yok,dusuk,yok,3_4_Milyon_TL_Arasi
Erzurum,Palandoken,Satilik,16_20_arasi,4,Merkezi,bilinmiyor,yok,var,var,yok,yok,yok,yok,yok,yok,yok,var,var,yok,yok,yok,yok,yok,yok,yok,yok,yok,yok,yok,yok,yok,yok,yok,yok,yok,yok,kademe_5,normal,normal,iyi,200_300_m2,5_oda,orta_4_7_kat,2_banyo,dusuk,yok,yok,dusuk,yok,yuksek,yok,4_5_Milyon_TL_Arasi
Hatay,Arsuz,Satilik,0,Yuksek_Giris,Kombi_Dogalgaz,bilinmiyor,yok,var,var,var,yok,yok,yok,yok,yok,yok,var,var,yok,yok,yok,yok,yok,var,yok,var,yok,yok,yok,yok,yok,yok,yok,yok,yok,yok,kademe_5,iyi,normal,bilinmiyor,125_150_m2,4_oda,orta_4_7_kat,2_banyo,dusuk,yok,dusuk,dusuk,orta,yuksek,yok,5_7_Bucuk_Milyon_TL_Arasi
Hatay,Dortyol,Satilik,1_5_arasi,7,Kombi,bilinmiyor,yok,var,var,var,yok,var,yok,var,yok,yok,var,var,yok,var,yok,yok,yok,yok,yok,yok,yok,yok,var,yok,yok,var,yok,yok,yok,yok,kademe_5,iyi,kotu,kotu,200_300_m2,5_oda,yuksek_8_15_kat,2_banyo,dusuk,dusuk,dusuk,dusuk,yuksek,yuksek,yok,7_Bucuk_10_Milyon_TL_Arasi
Hatay,Payas,Satilik,11_15_arasi,5,Klima,bilinmiyor,yok,yok,yok,var,yok,yok,yok,var,yok,yok,yok,yok,yok,var,yok,yok,yok,var,yok,yok,yok,yok,yok,yok,yok,yok,yok,yok,yok,yok,kademe_5,kotu,bilinmiyor,kotu,125_150_m2,4_oda,orta_4_7_kat,1_banyo,dusuk,yok,yok,dusuk,dusuk,yuksek,yok,1_5_2_Milyon_TL_Arasi
Hatay,Iskenderun,Satilik,16_20_arasi,3,Kombi_Dogalgaz,bilinmiyor,yok,var,yok,yok,yok,yok,yok,yok,yok,yok,var,yok,yok,yok,yok,yok,yok,yok,yok,yok,yok,yok,yok,yok,yok,yok,yok,yok,yok,yok,kademe_5,normal,normal,bilinmiyor,125_150_m2,4_oda,orta_4_7_kat,1_banyo,yok,yok,yok,orta,dusuk,orta,yok,4_5_Milyon_TL_Arasi
Hatay,Kirikhan,Satilik,11_15_arasi,5,Kombi,bilinmiyor,yok,var,var,var,yok,var,yok,yok,var,yok,yok,yok,yok,yok,yok,yok,yok,yok,yok,yok,yok,yok,yok,yok,yok,yok,yok,yok,yok,yok,kademe_5,bilinmiyor,normal,bilinmiyor,150_200_m2,4_oda,orta_4_7_kat,2_banyo,yok,yok,yok,dusuk,yok,yok,yok,2_3_Milyon_TL_Arasi
Hatay,Iskenderun,Satilik,6_10_arasi,1,Kombi,bilinmiyor,yok,var,yok,var,yok,yok,var,var,yok,yok,var,var,yok,yok,yok,yok,yok,yok,var,yok,yok,yok,yok,yok,yok,yok,yok,yok,yok,yok,kademe_5,bilinmiyor,iyi,bilinmiyor,150_200_m2,4_oda,yuksek_8_15_kat,2_banyo,yok,dusuk,yok,dusuk,dusuk,orta,yok,4_5_Milyon_TL_Arasi
Hatay,Iskenderun,Satilik,26_30_arasi,4,Klima,bilinmiyor,yok,var,var,yok,yok,yok,yok,yok,yok,yok,yok,yok,yok,yok,yok,yok,yok,yok,yok,yok,yok,yok,yok,yok,yok,yok,yok,yok,yok,yok,kademe_5,iyi,normal,bilinmiyor,125_150_m2,4_oda,orta_4_7_kat,1_banyo,yok,yok,yok,dusuk,yok,dusuk,yok,2_3_Milyon_TL_Arasi
Hatay,Defne,Satilik,6_10_arasi,1,Kombi,bilinmiyor,yok,var,yok,var,yok,var,yok,var,yok,yok,var,yok,yok,var,yok,yok,yok,yok,yok,yok,yok,yok,var,yok,yok,var,yok,yok,yok,yok,kademe_5,normal,normal,bilinmiyor,100_125_m2,3_oda,orta_4_7_kat,1_banyo,yok,yok,dusuk,dusuk,yuksek,yuksek,yok,1_5_2_Milyon_TL_Arasi
Hatay,Iskenderun,Satilik,6_10_arasi,1,isitma_yok,bilinmiyor,yok,yok,var,yok,yok,yok,yok,yok,yok,yok,yok,yok,yok,yok,yok,yok,yok,yok,yok,yok,yok,yok,yok,yok,yok,var,yok,yok,yok,yok,kademe_5,kotu,normal,normal,50_75_m2,3_oda,orta_4_7_kat,1_banyo,yok,yok,yok,orta,yok,dusuk,yok,2_3_Milyon_TL_Arasi
Yozgat,Merkez,Satilik,11_15_arasi,4,Kombi_Dogalgaz,bilinmiyor,yok,yok,var,var,yok,yok,yok,yok,yok,yok,var,yok,yok,yok,yok,yok,yok,yok,yok,yok,yok,yok,yok,yok,yok,var,yok,yok,yok,yok,kademe_5,kotu,normal,bilinmiyor,0_50_m2,2_oda,orta_4_7_kat,bilinmiyor,yok,yok,yok,dusuk,dusuk,orta,yok,1_5_Milyon_TL_Alti
Hatay,Iskenderun,Satilik,31_ve_uzeri,4,Klima,bilinmiyor,yok,var,var,yok,yok,yok,yok,yok,yok,yok,var,yok,yok,var,yok,yok,yok,yok,yok,yok,yok,yok,yok,yok,yok,var,yok,yok,yok,yok,kademe_5,normal,iyi,bilinmiyor,100_125_m2,4_oda,orta_4_7_kat,1_banyo,yok,dusuk,yok,dusuk,yok,yuksek,yok,3_4_Milyon_TL_Arasi
Tokat,Zile,Satilik,6_10_arasi,Yuksek_Giris,Kombi,bilinmiyor,yok,var,var,var,yok,yok,yok,yok,yok,yok,yok,yok,yok,yok,yok,yok,yok,yok,yok,yok,yok,yok,yok,yok,yok,yok,yok,yok,yok,yok,kademe_5,iyi,iyi,bilinmiyor,75_100_m2,2_oda,orta_4_7_kat,1_banyo,yok,yok,yok,dusuk,yok,yok,yok,2_3_Milyon_TL_Arasi
Tokat,Merkez,Satilik,0,2,Kombi,bilinmiyor,yok,var,var,var,yok,yok,yok,var,yok,yok,yok,yok,yok,yok,yok,yok,yok,yok,yok,yok,yok,yok,var,yok,yok,var,yok,yok,yok,yok,kademe_5,bilinmiyor,iyi,bilinmiyor,50_75_m2,2_oda,orta_4_7_kat,1_banyo,yok,yok,yok,dusuk,orta,dusuk,yok,2_3_Milyon_TL_Arasi
Yozgat,Merkez,Satilik,16_20_arasi,Yuksek_Giris,Soba,bilinmiyor,yok,yok,var,var,yok,var,var,var,yok,yok,yok,yok,yok,yok,yok,yok,yok,yok,yok,yok,yok,yok,yok,yok,yok,var,yok,yok,yok,yok,kademe_5,bilinmiyor,bilinmiyor,bilinmiyor,300_m2_ve_ustu,4_oda,alcak_1_3_kat,1_banyo,yok,yok,yok,yok,yok,yok,yok,1_5_2_Milyon_TL_Arasi
Hatay,Payas,Satilik,11_15_arasi,3,Klima,bilinmiyor,yok,yok,var,var,var,var,yok,var,yok,yok,yok,yok,yok,yok,yok,yok,yok,yok,yok,yok,yok,yok,yok,yok,yok,yok,yok,yok,yok,yok,kademe_5,normal,bilinmiyor,kotu,75_100_m2,3_oda,orta_4_7_kat,1_banyo,yok,yok,yok,dusuk,yok,dusuk,yok,1_5_2_Milyon_TL_Arasi
Hatay,Iskenderun,Satilik,31_ve_uzeri,1,Kombi_Dogalgaz,bilinmiyor,yok,yok,yok,yok,yok,yok,yok,yok,yok,yok,yok,yok,yok,yok,yok,yok,yok,yok,yok,yok,yok,yok,yok,yok,yok,yok,yok,yok,yok,yok,kademe_5,iyi,normal,bilinmiyor,100_125_m2,4_oda,yuksek_8_15_kat,1_banyo,yok,yok,yok,dusuk,yok,yok,yok,3_4_Milyon_TL_Arasi
Hatay,Iskenderun,Satilik,6_10_arasi,4,Kombi,bilinmiyor,yok,var,var,yok,yok,yok,yok,yok,yok,yok,yok,yok,yok,yok,yok,yok,yok,yok,yok,yok,yok,yok,yok,yok,yok,yok,yok,yok,yok,yok,kademe_5,kotu,normal,bilinmiyor,125_150_m2,4_oda,orta_4_7_kat,2_banyo,yok,yok,yok,dusuk,dusuk,yok,yok,4_5_Milyon_TL_Arasi
Hatay,Arsuz,Satilik,0,En_Ust_Kat,Kombi_Dogalgaz,bilinmiyor,yok,var,var,var,yok,var,var,var,var,yok,var,yok,yok,yok,yok,yok,yok,yok,yok,yok,yok,yok,var,yok,yok,var,var,yok,var,yok,kademe_5,bilinmiyor,bilinmiyor,bilinmiyor,75_100_m2,4_oda,orta_4_7_kat,2_banyo,dusuk,dusuk,yok,dusuk,dusuk,yuksek,yok,5_7_Bucuk_Milyon_TL_Arasi
Tokat,Merkez,Satilik,11_15_arasi,3,Kombi,bilinmiyor,yok,var,var,var,yok,yok,yok,yok,yok,yok,yok,yok,yok,yok,yok,yok,yok,yok,yok,yok,yok,yok,yok,yok,yok,yok,yok,yok,yok,yok,kademe_5,bilinmiyor,normal,bilinmiyor,150_200_m2,5_oda,orta_4_7_kat,1_banyo,yok,yok,yok,dusuk,yok,yok,yok,5_7_Bucuk_Milyon_TL_Arasi
Hatay,Antakya,Satilik,6_10_arasi,Ara_Kat,Kombi_Dogalgaz,bilinmiyor,yok,yok,yok,yok,yok,var,var,var,var,yok,yok,yok,yok,yok,yok,yok,yok,yok,yok,yok,yok,yok,yok,yok,yok,yok,yok,yok,yok,yok,kademe_5,kotu,iyi,kotu,150_200_m2,4_oda,orta_4_7_kat,2_banyo,yok,yok,yok,dusuk,yok,yok,yok,2_3_Milyon_TL_Arasi
Cankiri,Cerkes,Satilik,6_10_arasi,4,Kombi,bilinmiyor,yok,var,var,var,yok,yok,yok,yok,yok,yok,yok,yok,yok,yok,yok,yok,yok,yok,yok,yok,yok,yok,yok,yok,yok,yok,yok,yok,yok,yok,kademe_5,normal,normal,bilinmiyor,125_150_m2,4_oda,orta_4_7_kat,1_banyo,yok,yok,yok,dusuk,yok,yok,yok,3_4_Milyon_TL_Arasi
Hatay,Antakya,Satilik,6_10_arasi,2,Klima,bilinmiyor,yok,var,var,var,yok,yok,yok,var,yok,yok,var,yok,yok,var,yok,yok,yok,yok,yok,yok,yok,yok,yok,yok,yok,var,yok,yok,yok,yok,kademe_5,bilinmiyor,normal,kotu,150_200_m2,3_oda,orta_4_7_kat,1_banyo,yok,dusuk,yok,orta,yuksek,yuksek,yok,2_3_Milyon_TL_Arasi
Hatay,Antakya,Satilik,16_20_arasi,bilinmiyor,isi_pompasi_elektrik,bilinmiyor,yok,var,yok,var,yok,var,var,var,var,yok,var,yok,yok,yok,yok,yok,yok,yok,yok,yok,yok,yok,yok,yok,yok,var,var,yok,yok,yok,kademe_5,bilinmiyor,bilinmiyor,bilinmiyor,200_300_m2,6_oda,alcak_1_3_kat,2_banyo,yok,dusuk,yok,dusuk,dusuk,yuksek,yok,10_Milyon_TL_Ustu
Hatay,Iskenderun,Satilik,26_30_arasi,3,Klima,bilinmiyor,yok,var,yok,yok,yok,yok,yok,yok,yok,yok,yok,yok,yok,yok,yok,yok,yok,yok,yok,yok,yok,yok,yok,yok,yok,yok,yok,yok,yok,yok,kademe_5,iyi,kotu,bilinmiyor,125_150_m2,3_oda,orta_4_7_kat,1_banyo,yok,yok,yok,dusuk,yok,dusuk,yok,2_3_Milyon_TL_Arasi
Tokat,Zile,Satilik,31_ve_uzeri,Bahce,Kombi,bilinmiyor,yok,yok,yok,yok,yok,yok,yok,yok,yok,yok,yok,yok,yok,yok,yok,yok,yok,yok,yok,yok,yok,yok,yok,yok,yok,yok,yok,yok,yok,yok,kademe_5,bilinmiyor,bilinmiyor,bilinmiyor,300_m2_ve_ustu,7_oda_ve_ustu,bilinmiyor,2_banyo,yok,yok,yok,dusuk,yok,yok,yok,5_7_Bucuk_Milyon_TL_Arasi
Hatay,Iskenderun,Satilik,0,2,isitma_yok,bilinmiyor,yok,var,var,var,yok,yok,yok,yok,yok,yok,yok,yok,yok,yok,yok,yok,yok,yok,yok,yok,yok,yok,yok,yok,yok,yok,yok,yok,yok,yok,kademe_5,kotu,bilinmiyor,bilinmiyor,0_50_m2,2_oda,orta_4_7_kat,1_banyo,yok,yok,yok,dusuk,yok,yok,yok,2_3_Milyon_TL_Arasi
Hatay,Iskenderun,Satilik,16_20_arasi,Zemin,isitma_yok,bilinmiyor,yok,var,var,yok,yok,var,var,var,var,yok,yok,yok,yok,yok,yok,yok,yok,yok,yok,yok,yok,yok,yok,yok,yok,yok,yok,yok,yok,yok,kademe_5,bilinmiyor,normal,bilinmiyor,150_200_m2,4_oda,orta_4_7_kat,1_banyo,yok,yok,dusuk,orta,yuksek,dusuk,yok,3_4_Milyon_TL_Arasi
Hatay,Antakya,Satilik,6_10_arasi,2,Kombi_Dogalgaz,bilinmiyor,yok,var,var,yok,yok,var,var,var,yok,yok,var,var,yok,yok,yok,yok,yok,yok,yok,yok,yok,yok,yok,yok,yok,yok,yok,yok,yok,yok,kademe_5,iyi,normal,kotu,100_125_m2,3_oda,orta_4_7_kat,2_banyo,dusuk,yok,yok,dusuk,yok,dusuk,yok,2_3_Milyon_TL_Arasi
Nigde,Merkez,Satilik,21_25_arasi,1,Soba,bilinmiyor,yok,var,yok,yok,yok,var,var,var,var,yok,var,yok,yok,yok,yok,yok,yok,yok,yok,yok,yok,yok,var,yok,yok,var,yok,yok,yok,yok,kademe_5,bilinmiyor,bilinmiyor,bilinmiyor,300_m2_ve_ustu,3_oda,alcak_1_3_kat,1_banyo,yok,dusuk,yok,dusuk,orta,orta,yok,2_3_Milyon_TL_Arasi
Hatay,Kirikhan,Satilik,6_10_arasi,2,Kombi,bilinmiyor,yok,var,var,var,yok,var,var,var,yok,yok,yok,yok,yok,yok,yok,yok,yok,yok,yok,yok,yok,yok,yok,yok,yok,yok,yok,yok,yok,yok,kademe_5,normal,normal,kotu,200_300_m2,5_oda,yuksek_8_15_kat,3_banyo_ve_ustu,yok,yok,yok,dusuk,yok,yok,yok,5_7_Bucuk_Milyon_TL_Arasi
Hatay,Iskenderun,Satilik,31_ve_uzeri,bilinmiyor,Soba,bilinmiyor,yok,var,yok,var,yok,var,var,var,var,yok,yok,yok,yok,yok,yok,yok,yok,yok,yok,yok,yok,var,var,yok,yok,var,yok,yok,yok,yok,kademe_5,kotu,bilinmiyor,iyi,300_m2_ve_ustu,5_oda,alcak_1_3_kat,2_banyo,yok,yok,yok,orta,yok,dusuk,yok,1_5_Milyon_TL_Alti
Tokat,Merkez,Satilik,21_25_arasi,3,Kombi,bilinmiyor,yok,var,var,var,yok,var,var,yok,yok,yok,var,yok,yok,yok,yok,yok,yok,yok,yok,yok,yok,yok,yok,yok,yok,var,yok,yok,yok,yok,kademe_5,kotu,kotu,bilinmiyor,125_150_m2,3_oda,orta_4_7_kat,1_banyo,yok,yok,yok,dusuk,orta,dusuk,yok,2_3_Milyon_TL_Arasi
Tokat,Merkez,Satilik,0,Kot_3,Kombi_Dogalgaz,bilinmiyor,yok,yok,var,yok,yok,yok,yok,yok,yok,yok,yok,yok,yok,yok,yok,yok,yok,yok,yok,yok,yok,yok,yok,yok,yok,yok,yok,yok,yok,yok,kademe_5,normal,bilinmiyor,kotu,50_75_m2,3_oda,orta_4_7_kat,1_banyo,yok,yok,yok,dusuk,yok,yok,yok,3_4_Milyon_TL_Arasi
Hatay,Defne,Satilik,1_5_arasi,Villa_Kati,Yerden_Isitma,bilinmiyor,yok,var,var,var,var,var,var,var,yok,yok,var,var,yok,var,var,yok,yok,yok,yok,yok,yok,yok,var,yok,yok,var,var,yok,yok,yok,kademe_5,iyi,normal,iyi,300_m2_ve_ustu,7_oda_ve_ustu,orta_4_7_kat,3_banyo_ve_ustu,dusuk,orta,dusuk,dusuk,yok,yuksek,yok,7_Bucuk_10_Milyon_TL_Arasi
Hatay,Iskenderun,Satilik,6_10_arasi,2,Klima,bilinmiyor,yok,yok,yok,yok,yok,yok,var,yok,yok,yok,var,yok,yok,yok,yok,yok,yok,yok,yok,yok,yok,yok,yok,yok,yok,var,yok,yok,yok,yok,kademe_5,kotu,bilinmiyor,normal,50_75_m2,2_oda,orta_4_7_kat,1_banyo,yok,yok,dusuk,orta,orta,orta,yok,1_5_2_Milyon_TL_Arasi
Kahramanmaras,Dulkadiroglu,Satilik,1_5_arasi,1,bilinmiyor,bilinmiyor,yok,var,var,yok,yok,yok,yok,yok,yok,yok,yok,yok,yok,yok,yok,yok,yok,yok,yok,yok,yok,yok,yok,yok,yok,yok,yok,yok,yok,yok,kademe_5,bilinmiyor,bilinmiyor,bilinmiyor,50_75_m2,3_oda,alcak_1_3_kat,1_banyo,yok,yok,yok,dusuk,yok,yok,yok,1_5_2_Milyon_TL_Arasi
Osmaniye,Merkez,Satilik,0,3,Yerden_Isitma,bilinmiyor,yok,var,var,var,yok,yok,var,yok,yok,yok,yok,yok,yok,yok,yok,yok,yok,yok,yok,yok,yok,yok,yok,yok,yok,yok,yok,yok,yok,yok,kademe_5,normal,normal,normal,100_125_m2,4_oda,yuksek_8_15_kat,2_banyo,yok,yok,yok,dusuk,dusuk,dusuk,yok,3_4_Milyon_TL_Arasi
Tokat,Merkez,Satilik,0,2,Kombi,bilinmiyor,yok,var,var,var,yok,yok,yok,yok,yok,yok,yok,yok,yok,yok,yok,yok,yok,yok,yok,yok,yok,yok,yok,yok,yok,yok,yok,yok,yok,yok,kademe_5,iyi,iyi,bilinmiyor,150_200_m2,5_oda,orta_4_7_kat,2_banyo,yok,yok,yok,dusuk,yok,yok,yok,7_Bucuk_10_Milyon_TL_Arasi
Hatay,Iskenderun,Satilik,0,En_Ust_Kat,Kombi_Dogalgaz,bilinmiyor,yok,var,var,var,var,yok,var,var,yok,yok,yok,var,yok,yok,yok,yok,yok,var,yok,yok,yok,yok,var,yok,yok,var,yok,yok,yok,yok,kademe_5,normal,normal,kotu,100_125_m2,4_oda,orta_4_7_kat,3_banyo_ve_ustu,dusuk,yok,yok,orta,orta,yuksek,yok,4_5_Milyon_TL_Arasi
Hatay,Dortyol,Satilik,6_10_arasi,4,Kombi,bilinmiyor,yok,var,yok,var,yok,yok,var,var,yok,yok,var,var,yok,var,yok,yok,yok,yok,yok,yok,yok,yok,var,yok,yok,var,yok,yok,yok,yok,kademe_5,normal,normal,bilinmiyor,150_200_m2,4_oda,orta_4_7_kat,2_banyo,yok,yok,dusuk,dusuk,orta,yuksek,yok,3_4_Milyon_TL_Arasi
Tokat,Merkez,Satilik,26_30_arasi,Yuksek_Giris,Kombi_Dogalgaz,bilinmiyor,yok,yok,yok,yok,yok,var,yok,var,var,yok,yok,yok,yok,yok,yok,yok,yok,yok,yok,yok,yok,yok,yok,yok,yok,yok,yok,yok,yok,yok,kademe_5,bilinmiyor,kotu,bilinmiyor,100_125_m2,3_oda,orta_4_7_kat,1_banyo,yok,yok,yok,dusuk,yok,yok,yok,3_4_Milyon_TL_Arasi
Cankiri,Cerkes,Satilik,0,3,Kombi,bilinmiyor,yok,var,yok,var,yok,yok,var,yok,var,yok,yok,yok,yok,yok,yok,yok,yok,yok,yok,yok,yok,yok,yok,yok,yok,yok,yok,yok,yok,yok,kademe_5,normal,bilinmiyor,iyi,100_125_m2,4_oda,orta_4_7_kat,1_banyo,yok,yok,yok,dusuk,yok,yok,yok,3_4_Milyon_TL_Arasi
Hatay,Iskenderun,Satilik,31_ve_uzeri,Zemin,Klima,bilinmiyor,yok,var,yok,var,yok,yok,yok,yok,yok,yok,yok,yok,yok,yok,yok,yok,yok,yok,yok,yok,yok,yok,yok,yok,yok,yok,yok,yok,yok,yok,kademe_5,normal,normal,bilinmiyor,125_150_m2,4_oda,orta_4_7_kat,1_banyo,yok,yok,yok,dusuk,yok,dusuk,yok,2_3_Milyon_TL_Arasi
Kahramanmaras,Onikisubat,Satilik,0,5,Kombi_Dogalgaz,bilinmiyor,yok,var,var,var,yok,var,yok,var,yok,yok,var,var,yok,yok,yok,yok,yok,yok,yok,yok,yok,yok,yok,yok,yok,yok,yok,yok,yok,yok,kademe_5,bilinmiyor,bilinmiyor,bilinmiyor,100_125_m2,3_oda,orta_4_7_kat,2_banyo,yok,yok,yok,dusuk,yok,yuksek,yok,4_5_Milyon_TL_Arasi
Hatay,Defne,Satilik,6_10_arasi,Bahce,Kombi_Dogalgaz,bilinmiyor,yok,var,yok,yok,yok,var,var,yok,var,yok,var,yok,yok,yok,yok,yok,yok,yok,yok,yok,yok,yok,yok,yok,yok,var,yok,yok,yok,yok,kademe_5,normal,kotu,kotu,100_125_m2,3_oda,orta_4_7_kat,1_banyo,yok,yok,yok,dusuk,orta,orta,yok,1_5_Milyon_TL_Alti
Osmaniye,Hasanbeyli,Satilik,26_30_arasi,Bahce,Soba,bilinmiyor,yok,var,yok,yok,yok,var,var,var,var,yok,yok,yok,yok,yok,yok,yok,yok,yok,yok,yok,yok,yok,var,yok,yok,yok,var,yok,yok,yok,kademe_5,bilinmiyor,bilinmiyor,bilinmiyor,300_m2_ve_ustu,7_oda_ve_ustu,bilinmiyor,2_banyo,yok,yok,yok,dusuk,yok,yok,yok,5_7_Bucuk_Milyon_TL_Arasi
Hatay,Iskenderun,Satilik,6_10_arasi,Ara_Kat,Kombi_Dogalgaz,bilinmiyor,yok,var,var,yok,yok,var,yok,var,yok,yok,var,var,yok,yok,yok,yok,yok,yok,yok,yok,yok,var,var,yok,yok,var,yok,yok,yok,yok,kademe_5,normal,bilinmiyor,normal,125_150_m2,4_oda,orta_4_7_kat,2_banyo,dusuk,yok,yok,orta,orta,orta,yok,4_5_Milyon_TL_Arasi
Kahramanmaras,Onikisubat,Satilik,0,1,Kombi,bilinmiyor,yok,var,yok,var,yok,yok,var,var,yok,yok,yok,yok,yok,yok,yok,yok,yok,yok,yok,yok,yok,yok,yok,yok,yok,yok,yok,yok,yok,yok,kademe_5,normal,bilinmiyor,bilinmiyor,150_200_m2,4_oda,orta_4_7_kat,1_banyo,yok,yok,yok,dusuk,yok,dusuk,yok,3_4_Milyon_TL_Arasi
Yozgat,Merkez,Satilik,6_10_arasi,En_Ust_Kat,Kombi_Dogalgaz,bilinmiyor,yok,var,var,yok,yok,yok,yok,var,var,yok,var,var,yok,var,yok,yok,yok,yok,yok,yok,yok,yok,var,yok,yok,var,yok,yok,yok,yok,kademe_5,normal,normal,bilinmiyor,125_150_m2,4_oda,yuksek_8_15_kat,2_banyo,yok,yok,yok,orta,orta,yuksek,yok,4_5_Milyon_TL_Arasi
Hatay,Antakya,Satilik,6_10_arasi,1,Kombi,bilinmiyor,yok,yok,yok,var,yok,yok,yok,yok,yok,yok,yok,yok,yok,yok,yok,yok,yok,yok,yok,yok,yok,yok,yok,yok,yok,yok,yok,yok,yok,yok,kademe_5,normal,kotu,kotu,125_150_m2,4_oda,orta_4_7_kat,1_banyo,yok,yok,yok,dusuk,yok,yok,yok,2_3_Milyon_TL_Arasi
Hatay,Iskenderun,Satilik,16_20_arasi,En_Ust_Kat,Kombi_Dogalgaz,bilinmiyor,yok,var,var,var,yok,var,yok,var,var,yok,var,yok,yok,yok,yok,yok,yok,yok,var,yok,yok,var,yok,yok,yok,yok,yok,yok,yok,yok,kademe_5,bilinmiyor,normal,bilinmiyor,150_200_m2,4_oda,orta_4_7_kat,1_banyo,dusuk,dusuk,dusuk,orta,orta,yuksek,yok,4_5_Milyon_TL_Arasi
Hatay,Iskenderun,Satilik,11_15_arasi,4,Kombi_Dogalgaz,bilinmiyor,yok,var,var,yok,yok,var,var,var,yok,yok,var,var,yok,yok,yok,yok,yok,yok,yok,yok,yok,yok,yok,yok,yok,yok,yok,yok,yok,yok,kademe_5,normal,normal,bilinmiyor,125_150_m2,4_oda,orta_4_7_kat,2_banyo,dusuk,dusuk,yok,dusuk,yok,yuksek,yok,3_4_Milyon_TL_Arasi
Hatay,Arsuz,Satilik,0,3,Gunes_Enerjisi,bilinmiyor,yok,var,var,var,yok,var,var,yok,yok,yok,yok,var,yok,var,yok,yok,yok,yok,yok,yok,yok,var,var,yok,yok,var,yok,yok,yok,yok,kademe_5,normal,bilinmiyor,bilinmiyor,125_150_m2,4_oda,orta_4_7_kat,2_banyo,yok,yok,yok,orta,yok,yuksek,yok,3_4_Milyon_TL_Arasi
Hatay,Iskenderun,Satilik,6_10_arasi,Ara_Kat,Klima,bilinmiyor,yok,yok,var,yok,yok,yok,yok,yok,yok,yok,yok,yok,yok,yok,yok,yok,yok,yok,yok,yok,yok,yok,yok,yok,yok,yok,yok,yok,yok,yok,kademe_5,normal,bilinmiyor,kotu,50_75_m2,2_oda,orta_4_7_kat,1_banyo,yok,yok,yok,dusuk,yok,dusuk,yok,1_5_2_Milyon_TL_Arasi
Kahramanmaras,Onikisubat,Satilik,1_5_arasi,6,Merkezi,bilinmiyor,yok,var,var,var,var,var,yok,var,var,yok,var,var,yok,var,yok,yok,yok,yok,yok,yok,yok,yok,var,yok,yok,var,yok,yok,yok,yok,kademe_5,bilinmiyor,bilinmiyor,bilinmiyor,100_125_m2,3_oda,yuksek_8_15_kat,2_banyo,dusuk,dusuk,yok,dusuk,yok,yuksek,yok,4_5_Milyon_TL_Arasi
Hatay,Arsuz,Satilik,0,2,Kombi_Dogalgaz,bilinmiyor,yok,yok,yok,var,yok,yok,yok,yok,yok,yok,yok,yok,yok,yok,yok,yok,yok,yok,yok,yok,yok,yok,yok,yok,yok,yok,yok,yok,yok,yok,kademe_5,bilinmiyor,bilinmiyor,bilinmiyor,125_150_m2,4_oda,orta_4_7_kat,2_banyo,yok,yok,yok,dusuk,dusuk,yok,yok,7_Bucuk_10_Milyon_TL_Arasi
Erzurum,Palandoken,Satilik,6_10_arasi,6,Merkezi,bilinmiyor,yok,var,var,var,yok,yok,var,var,yok,yok,var,var,yok,var,yok,yok,yok,yok,yok,yok,yok,yok,var,yok,yok,yok,yok,yok,yok,yok,kademe_5,normal,bilinmiyor,normal,125_150_m2,4_oda,yuksek_8_15_kat,2_banyo,dusuk,yok,dusuk,orta,orta,yuksek,yok,3_4_Milyon_TL_Arasi
Hatay,Kirikhan,Satilik,11_15_arasi,bilinmiyor,Soba,bilinmiyor,yok,yok,yok,var,yok,var,var,var,var,yok,var,yok,yok,yok,yok,yok,yok,yok,yok,yok,yok,yok,yok,yok,yok,var,yok,yok,yok,yok,kademe_5,bilinmiyor,bilinmiyor,bilinmiyor,300_m2_ve_ustu,4_oda,alcak_1_3_kat,1_banyo,yok,yok,yok,orta,orta,orta,yok,5_7_Bucuk_Milyon_TL_Arasi
Yozgat,Merkez,Satilik,0,Cati,Kombi_Dogalgaz,bilinmiyor,yok,yok,yok,yok,var,var,yok,yok,yok,yok,yok,yok,yok,yok,yok,yok,yok,yok,yok,yok,yok,yok,yok,yok,yok,yok,yok,yok,yok,yok,kademe_5,normal,normal,bilinmiyor,0_50_m2,2_oda,orta_4_7_kat,1_banyo,yok,yok,yok,dusuk,yok,yok,yok,1_5_Milyon_TL_Alti
Hatay,Arsuz,Satilik,0,bilinmiyor,Klima,bilinmiyor,yok,var,var,var,yok,var,var,yok,yok,yok,var,var,yok,var,yok,yok,yok,yok,yok,yok,yok,yok,yok,yok,yok,yok,yok,yok,yok,yok,kademe_5,bilinmiyor,iyi,bilinmiyor,300_m2_ve_ustu,5_oda,orta_4_7_kat,3_banyo_ve_ustu,yok,dusuk,yok,orta,yok,orta,yok,10_Milyon_TL_Ustu
Nigde,Merkez,Satilik,11_15_arasi,Bahce,Soba,bilinmiyor,yok,yok,yok,var,var,var,yok,yok,var,yok,var,yok,yok,yok,yok,yok,yok,yok,yok,yok,yok,yok,var,yok,yok,yok,var,yok,yok,yok,kademe_5,kotu,kotu,bilinmiyor,100_125_m2,3_oda,alcak_1_3_kat,1_banyo,yok,yok,yok,dusuk,yok,yuksek,yok,7_Bucuk_10_Milyon_TL_Arasi
Hatay,Iskenderun,Satilik,6_10_arasi,Cati,Kombi_Dogalgaz,bilinmiyor,yok,var,var,var,var,var,var,var,yok,yok,var,yok,yok,var,yok,yok,yok,var,yok,yok,yok,var,yok,yok,yok,var,var,yok,var,yok,kademe_5,iyi,normal,normal,200_300_m2,5_oda,orta_4_7_kat,1_banyo,yok,dusuk,dusuk,orta,orta,yuksek,yok,5_7_Bucuk_Milyon_TL_Arasi
Tokat,Merkez,Satilik,1_5_arasi,1,Kombi,bilinmiyor,yok,yok,yok,yok,yok,yok,yok,yok,yok,yok,yok,yok,yok,yok,yok,yok,yok,yok,yok,yok,yok,yok,yok,yok,yok,yok,yok,yok,yok,yok,kademe_5,bilinmiyor,bilinmiyor,bilinmiyor,150_200_m2,5_oda,orta_4_7_kat,1_banyo,yok,yok,yok,dusuk,yok,yok,yok,7_Bucuk_10_Milyon_TL_Arasi
Tokat,Merkez,Satilik,21_25_arasi,3,Kombi,bilinmiyor,yok,var,var,var,yok,var,yok,var,yok,yok,var,yok,yok,var,yok,yok,yok,yok,yok,yok,yok,yok,var,yok,yok,var,yok,yok,yok,yok,kademe_5,kotu,kotu,bilinmiyor,100_125_m2,3_oda,orta_4_7_kat,1_banyo,yok,yok,dusuk,dusuk,yuksek,yuksek,yok,3_4_Milyon_TL_Arasi
Hatay,Arsuz,Satilik,21_25_arasi,Bahce,Klima,bilinmiyor,yok,var,yok,var,yok,var,var,var,var,yok,yok,yok,yok,yok,yok,yok,yok,yok,yok,yok,yok,yok,yok,yok,yok,yok,yok,var,yok,yok,kademe_5,normal,kotu,bilinmiyor,125_150_m2,4_oda,alcak_1_3_kat,2_banyo,yok,yok,dusuk,dusuk,dusuk,dusuk,yok,10_Milyon_TL_Ustu
Tokat,Erbaa,Satilik,31_ve_uzeri,Bahce,Soba,bilinmiyor,yok,yok,yok,yok,yok,yok,yok,yok,yok,yok,yok,yok,yok,yok,yok,yok,yok,yok,yok,yok,yok,yok,var,yok,yok,var,yok,yok,yok,yok,kademe_5,kotu,kotu,bilinmiyor,200_300_m2,7_oda_ve_ustu,bilinmiyor,1_banyo,yok,yok,yok,dusuk,orta,yok,yok,2_3_Milyon_TL_Arasi
Osmaniye,Toprakkale,Satilik,6_10_arasi,1,Kombi_Dogalgaz,bilinmiyor,yok,var,yok,var,yok,yok,yok,yok,yok,yok,yok,yok,yok,yok,yok,yok,yok,yok,yok,yok,yok,yok,yok,yok,yok,yok,yok,yok,yok,yok,kademe_5,iyi,iyi,iyi,200_300_m2,5_oda,yuksek_8_15_kat,2_banyo,yok,yok,yok,dusuk,yok,yok,yok,4_5_Milyon_TL_Arasi
Nigde,Merkez,Satilik,0,1,Merkezi,bilinmiyor,yok,var,var,var,yok,var,var,yok,yok,yok,var,yok,yok,var,yok,yok,yok,yok,yok,yok,yok,yok,yok,yok,yok,var,yok,yok,yok,yok,kademe_5,iyi,normal,bilinmiyor,100_125_m2,3_oda,yuksek_8_15_kat,1_banyo,dusuk,dusuk,yok,dusuk,yok,yuksek,yok,4_5_Milyon_TL_Arasi
Tokat,Merkez,Satilik,0,2,Kombi,bilinmiyor,yok,var,var,var,var,yok,yok,var,yok,yok,var,yok,yok,var,yok,yok,yok,yok,yok,yok,yok,yok,yok,yok,yok,var,yok,yok,yok,yok,kademe_5,iyi,normal,iyi,50_75_m2,2_oda,orta_4_7_kat,1_banyo,yok,yok,dusuk,dusuk,yuksek,yuksek,yok,3_4_Milyon_TL_Arasi
Nigde,Merkez,Satilik,31_ve_uzeri,2,Kombi,bilinmiyor,yok,var,var,yok,yok,yok,yok,yok,yok,yok,yok,yok,yok,yok,yok,yok,yok,yok,yok,yok,yok,yok,yok,yok,yok,yok,yok,yok,yok,yok,kademe_5,kotu,kotu,kotu,125_150_m2,4_oda,orta_4_7_kat,2_banyo,yok,yok,yok,dusuk,yok,yok,yok,3_4_Milyon_TL_Arasi
Kahramanmaras,Dulkadiroglu,Satilik,0,2,Kombi_Dogalgaz,bilinmiyor,yok,var,var,var,yok,var,yok,yok,yok,yok,var,yok,yok,var,yok,yok,yok,yok,yok,yok,yok,yok,var,yok,yok,var,yok,yok,yok,yok,kademe_5,iyi,normal,bilinmiyor,75_100_m2,3_oda,orta_4_7_kat,1_banyo,orta,dusuk,yok,orta,orta,yuksek,yok,3_4_Milyon_TL_Arasi
Yozgat,Merkez,Satilik,0,2,Kombi,bilinmiyor,yok,var,var,var,yok,yok,var,yok,var,yok,yok,yok,yok,yok,yok,yok,yok,yok,yok,yok,yok,yok,yok,yok,yok,yok,yok,yok,yok,yok,kademe_5,iyi,bilinmiyor,normal,75_100_m2,3_oda,yuksek_8_15_kat,1_banyo,yok,yok,yok,dusuk,yok,yok,yok,2_3_Milyon_TL_Arasi
Tokat,Merkez,Satilik,26_30_arasi,3,Kombi,bilinmiyor,yok,var,var,yok,yok,yok,yok,var,var,yok,yok,yok,yok,var,yok,yok,yok,yok,yok,yok,yok,yok,yok,yok,yok,var,yok,yok,yok,yok,kademe_5,normal,normal,bilinmiyor,125_150_m2,3_oda,orta_4_7_kat,1_banyo,yok,yok,dusuk,dusuk,orta,orta,yok,3_4_Milyon_TL_Arasi
Nigde,Merkez,Satilik,11_15_arasi,7,Merkezi,bilinmiyor,yok,var,var,var,yok,var,yok,var,yok,yok,var,var,yok,var,yok,yok,yok,yok,yok,yok,yok,yok,yok,yok,yok,var,yok,yok,yok,yok,kademe_5,kotu,kotu,bilinmiyor,150_200_m2,5_oda,yuksek_8_15_kat,2_banyo,dusuk,dusuk,yok,dusuk,yok,yuksek,yok,5_7_Bucuk_Milyon_TL_Arasi
Tokat,Merkez,Satilik,16_20_arasi,3,Kombi_Dogalgaz,bilinmiyor,yok,var,var,yok,yok,yok,yok,yok,yok,yok,var,yok,yok,yok,yok,yok,yok,yok,yok,yok,yok,yok,yok,yok,yok,var,yok,yok,yok,yok,kademe_5,kotu,iyi,bilinmiyor,125_150_m2,3_oda,orta_4_7_kat,1_banyo,yok,yok,yok,dusuk,orta,orta,yok,4_5_Milyon_TL_Arasi
Hatay,Arsuz,Satilik,1_5_arasi,2,Kombi_Dogalgaz,bilinmiyor,yok,var,yok,var,var,var,var,yok,var,yok,yok,yok,yok,yok,yok,yok,yok,yok,yok,yok,yok,yok,yok,yok,yok,yok,yok,yok,yok,yok,kademe_5,iyi,iyi,bilinmiyor,200_300_m2,4_oda,orta_4_7_kat,2_banyo,yok,yok,yok,yok,yok,yok,yok,10_Milyon_TL_Ustu
Tokat,Merkez,Satilik,0,3,Kombi,bilinmiyor,yok,var,var,yok,yok,yok,yok,yok,yok,yok,yok,yok,yok,yok,yok,yok,yok,yok,yok,yok,yok,yok,yok,yok,yok,yok,yok,yok,yok,yok,kademe_5,normal,bilinmiyor,kotu,0_50_m2,2_oda,orta_4_7_kat,1_banyo,yok,yok,yok,dusuk,yok,yok,yok,2_3_Milyon_TL_Arasi
Hatay,Defne,Satilik,0,3,Yerden_Isitma,bilinmiyor,yok,var,yok,var,yok,yok,yok,yok,yok,yok,yok,yok,yok,yok,yok,yok,yok,yok,yok,yok,yok,yok,yok,yok,yok,yok,yok,yok,yok,yok,kademe_5,kotu,normal,bilinmiyor,125_150_m2,3_oda,orta_4_7_kat,1_banyo,yok,yok,yok,dusuk,yok,yok,yok,3_4_Milyon_TL_Arasi
Nigde,Merkez,Satilik,0,2,Kombi_Dogalgaz,bilinmiyor,yok,var,var,yok,yok,yok,var,yok,yok,yok,var,yok,yok,var,yok,yok,yok,yok,yok,yok,yok,yok,yok,yok,yok,var,yok,yok,yok,yok,kademe_5,bilinmiyor,bilinmiyor,bilinmiyor,75_100_m2,3_oda,yuksek_8_15_kat,1_banyo,dusuk,yok,yok,orta,orta,yuksek,yok,5_7_Bucuk_Milyon_TL_Arasi
Kahramanmaras,Onikisubat,Satilik,6_10_arasi,Giris,Kombi,bilinmiyor,yok,var,var,var,yok,yok,yok,yok,yok,yok,yok,yok,yok,yok,yok,yok,yok,yok,yok,yok,yok,yok,yok,yok,yok,yok,yok,yok,yok,yok,kademe_5,iyi,normal,bilinmiyor,150_200_m2,4_oda,orta_4_7_kat,1_banyo,dusuk,yok,dusuk,dusuk,yok,yuksek,yok,3_4_Milyon_TL_Arasi
Hatay,Belen,Satilik,6_10_arasi,1,Kombi,bilinmiyor,yok,var,var,yok,yok,yok,yok,yok,yok,yok,yok,yok,yok,yok,yok,yok,yok,yok,yok,yok,yok,yok,yok,yok,yok,yok,yok,yok,yok,yok,kademe_5,bilinmiyor,bilinmiyor,kotu,100_125_m2,3_oda,orta_4_7_kat,2_banyo,yok,yok,yok,dusuk,yok,dusuk,yok,3_4_Milyon_TL_Arasi
Hatay,Iskenderun,Satilik,26_30_arasi,Ara_Kat,Kombi_Dogalgaz,bilinmiyor,yok,var,yok,var,yok,var,var,var,var,yok,var,yok,yok,yok,yok,yok,yok,yok,yok,yok,yok,var,var,yok,yok,var,yok,yok,yok,yok,kademe_5,kotu,bilinmiyor,bilinmiyor,125_150_m2,3_oda,orta_4_7_kat,1_banyo,dusuk,dusuk,yok,dusuk,yok,yuksek,yok,4_5_Milyon_TL_Arasi
Hatay,Defne,Satilik,6_10_arasi,2,Kombi_Dogalgaz,bilinmiyor,yok,var,var,var,yok,yok,yok,var,yok,yok,yok,yok,yok,yok,yok,yok,yok,yok,yok,yok,yok,yok,yok,yok,yok,var,yok,yok,yok,yok,kademe_5,normal,bilinmiyor,iyi,150_200_m2,4_oda,orta_4_7_kat,1_banyo,yok,yok,yok,dusuk,orta,orta,yok,2_3_Milyon_TL_Arasi
Yozgat,Merkez,Satilik,11_15_arasi,1,Merkezi,bilinmiyor,yok,var,var,var,yok,var,var,var,yok,yok,yok,yok,yok,yok,yok,yok,yok,yok,yok,yok,yok,yok,yok,yok,yok,yok,yok,yok,yok,yok,kademe_5,normal,normal,bilinmiyor,125_150_m2,4_oda,yuksek_8_15_kat,2_banyo,yok,yok,yok,dusuk,yok,yok,yok,2_3_Milyon_TL_Arasi
Tokat,Merkez,Satilik,0,2,Kombi,bilinmiyor,yok,var,var,var,yok,yok,yok,yok,yok,yok,yok,yok,yok,var,yok,yok,yok,yok,yok,yok,yok,yok,var,yok,yok,var,yok,yok,yok,yok,kademe_5,bilinmiyor,iyi,kotu,0_50_m2,2_oda,alcak_1_3_kat,1_banyo,yok,yok,yok,orta,yuksek,orta,yok,3_4_Milyon_TL_Arasi
Hatay,Dortyol,Satilik,11_15_arasi,5,Kombi_Dogalgaz,bilinmiyor,yok,var,var,var,yok,var,yok,var,var,yok,var,var,yok,yok,yok,yok,yok,yok,yok,yok,yok,yok,yok,yok,yok,var,yok,yok,yok,yok,kademe_5,iyi,normal,normal,150_200_m2,4_oda,orta_4_7_kat,2_banyo,yok,dusuk,yok,dusuk,dusuk,yuksek,yok,2_3_Milyon_TL_Arasi
Hatay,Antakya,Satilik,0,bilinmiyor,isitma_yok_elektrik,bilinmiyor,yok,var,yok,var,yok,var,var,var,var,yok,var,yok,yok,yok,yok,yok,yok,yok,yok,yok,yok,yok,var,yok,yok,yok,yok,yok,yok,yok,kademe_5,bilinmiyor,bilinmiyor,bilinmiyor,125_150_m2,4_oda,alcak_1_3_kat,1_banyo,dusuk,dusuk,yok,orta,dusuk,yuksek,yok,1_5_2_Milyon_TL_Arasi
Nigde,Merkez,Satilik,6_10_arasi,5,Merkezi,bilinmiyor,yok,var,var,var,yok,yok,var,var,yok,yok,yok,yok,yok,yok,yok,yok,yok,yok,yok,yok,yok,yok,yok,yok,yok,yok,yok,yok,yok,yok,kademe_5,normal,bilinmiyor,kotu,125_150_m2,4_oda,yuksek_8_15_kat,3_banyo_ve_ustu,yok,yok,yok,yok,yok,yok,yok,3_4_Milyon_TL_Arasi
Hatay,Iskenderun,Satilik,31_ve_uzeri,1,Kombi_Dogalgaz,bilinmiyor,yok,var,yok,yok,yok,var,var,yok,yok,yok,yok,yok,yok,yok,yok,yok,yok,yok,yok,yok,yok,yok,yok,yok,yok,yok,yok,yok,yok,yok,kademe_5,normal,kotu,kotu,100_125_m2,3_oda,orta_4_7_kat,1_banyo,yok,yok,yok,dusuk,yok,yok,yok,2_3_Milyon_TL_Arasi
Hatay,Arsuz,Satilik,1_5_arasi,2,Klima,bilinmiyor,yok,var,yok,yok,yok,yok,yok,yok,yok,yok,yok,yok,yok,yok,yok,yok,yok,yok,yok,yok,yok,yok,yok,yok,yok,var,yok,yok,yok,yok,kademe_5,iyi,iyi,bilinmiyor,50_75_m2,3_oda,orta_4_7_kat,1_banyo,yok,yok,yok,dusuk,yok,dusuk,yok,3_4_Milyon_TL_Arasi
Hatay,Arsuz,Satilik,11_15_arasi,Ara_Kat,Klima,bilinmiyor,yok,yok,yok,yok,yok,var,var,var,yok,yok,var,var,yok,var,yok,yok,yok,var,yok,yok,yok,yok,yok,yok,yok,var,yok,yok,yok,yok,kademe_5,normal,kotu,bilinmiyor,100_125_m2,4_oda,orta_4_7_kat,2_banyo,yok,yok,yok,dusuk,orta,yuksek,yok,2_3_Milyon_TL_Arasi
Hatay,Dortyol,Satilik,0,1,Kombi,bilinmiyor,yok,var,yok,var,yok,yok,yok,yok,yok,yok,yok,yok,yok,yok,yok,yok,yok,yok,yok,yok,yok,yok,yok,yok,yok,yok,yok,yok,yok,yok,kademe_5,bilinmiyor,bilinmiyor,normal,100_125_m2,3_oda,orta_4_7_kat,1_banyo,yok,yok,yok,dusuk,yok,yok,yok,4_5_Milyon_TL_Arasi
Bartin,Amasra,Satilik,26_30_arasi,3,Soba,bilinmiyor,yok,var,yok,var,yok,var,var,var,var,yok,yok,yok,yok,yok,yok,yok,yok,yok,yok,yok,yok,yok,yok,yok,yok,yok,yok,yok,yok,yok,kademe_5,normal,kotu,bilinmiyor,75_100_m2,3_oda,orta_4_7_kat,1_banyo,yok,yok,yok,dusuk,yok,yok,yok,3_4_Milyon_TL_Arasi
Tokat,Niksar,Satilik,6_10_arasi,3,Kombi_Dogalgaz,bilinmiyor,yok,var,var,var,yok,yok,yok,var,yok,yok,var,yok,yok,var,yok,yok,yok,yok,yok,yok,yok,yok,yok,yok,yok,var,yok,yok,yok,yok,kademe_5,bilinmiyor,normal,normal,75_100_m2,3_oda,orta_4_7_kat,1_banyo,yok,yok,yok,dusuk,orta,yuksek,yok,2_3_Milyon_TL_Arasi
Hatay,Iskenderun,Satilik,6_10_arasi,4,Kombi,bilinmiyor,yok,var,yok,yok,yok,yok,yok,yok,yok,yok,yok,yok,yok,yok,yok,yok,yok,yok,yok,yok,yok,yok,yok,yok,yok,yok,yok,yok,yok,yok,kademe_5,kotu,kotu,normal,150_200_m2,4_oda,orta_4_7_kat,2_banyo,yok,yok,yok,dusuk,yok,yok,yok,5_7_Bucuk_Milyon_TL_Arasi
Hatay,Iskenderun,Satilik,0,3,Kombi,bilinmiyor,yok,var,var,yok,yok,var,var,var,var,yok,var,yok,yok,yok,yok,yok,yok,yok,yok,yok,yok,yok,var,yok,yok,yok,yok,yok,yok,yok,kademe_5,kotu,bilinmiyor,kotu,0_50_m2,2_oda,orta_4_7_kat,1_banyo,dusuk,yok,yok,dusuk,orta,dusuk,yok,1_5_2_Milyon_TL_Arasi
Tokat,Niksar,Satilik,11_15_arasi,5,Kombi,bilinmiyor,yok,var,var,var,yok,var,yok,var,yok,yok,yok,var,yok,yok,yok,yok,yok,yok,yok,yok,yok,yok,var,yok,yok,var,yok,yok,yok,yok,kademe_5,iyi,normal,bilinmiyor,150_200_m2,5_oda,orta_4_7_kat,2_banyo,dusuk,dusuk,dusuk,yok,orta,orta,yok,4_5_Milyon_TL_Arasi
Hatay,Antakya,Satilik,1_5_arasi,Yuksek_Giris,Merkezi,bilinmiyor,yok,var,var,var,yok,yok,var,var,yok,yok,var,yok,yok,yok,yok,yok,yok,yok,yok,yok,yok,yok,yok,yok,yok,var,yok,yok,yok,yok,kademe_5,iyi,bilinmiyor,kotu,125_150_m2,4_oda,orta_4_7_kat,1_banyo,dusuk,dusuk,yok,dusuk,dusuk,orta,yok,2_3_Milyon_TL_Arasi
Hatay,Arsuz,Satilik,1_5_arasi,Bahce,isi_pompasi,bilinmiyor,yok,yok,yok,var,var,var,var,var,var,yok,yok,yok,yok,yok,yok,yok,yok,yok,yok,yok,yok,yok,yok,yok,yok,var,yok,yok,yok,yok,kademe_5,bilinmiyor,bilinmiyor,bilinmiyor,200_300_m2,3_oda,orta_4_7_kat,3_banyo_ve_ustu,yok,yok,yok,dusuk,yok,yok,yok,10_Milyon_TL_Ustu
Yozgat,Merkez,Satilik,6_10_arasi,4,Kombi,bilinmiyor,yok,var,var,var,yok,var,yok,var,yok,yok,var,yok,yok,yok,yok,yok,yok,yok,yok,yok,yok,yok,yok,yok,yok,yok,yok,yok,yok,yok,kademe_5,kotu,bilinmiyor,bilinmiyor,125_150_m2,4_oda,orta_4_7_kat,1_banyo,yok,yok,yok,dusuk,yok,dusuk,yok,1_5_2_Milyon_TL_Arasi
Erzurum,Yakutiye,Satilik,1_5_arasi,5,Merkezi,bilinmiyor,yok,var,yok,var,yok,yok,var,var,yok,yok,yok,yok,yok,yok,yok,yok,yok,yok,yok,yok,yok,yok,yok,yok,yok,yok,yok,yok,yok,yok,kademe_5,kotu,kotu,iyi,150_200_m2,4_oda,yuksek_8_15_kat,2_banyo,yok,yok,yok,dusuk,yok,yok,yok,4_5_Milyon_TL_Arasi
Hatay,Arsuz,Satilik,16_20_arasi,2,Klima,bilinmiyor,yok,var,yok,var,yok,yok,yok,yok,yok,yok,yok,yok,yok,yok,yok,yok,yok,yok,yok,yok,yok,yok,yok,yok,yok,yok,yok,yok,yok,yok,kademe_5,kotu,kotu,bilinmiyor,150_200_m2,4_oda,alcak_1_3_kat,1_banyo,yok,yok,yok,dusuk,yok,dusuk,yok,4_5_Milyon_TL_Arasi
Tokat,Merkez,Satilik,11_15_arasi,3,Kombi,bilinmiyor,yok,var,yok,var,yok,var,yok,var,var,yok,var,yok,yok,yok,yok,yok,yok,yok,yok,yok,yok,yok,var,yok,yok,var,yok,yok,yok,yok,kademe_5,kotu,kotu,bilinmiyor,125_150_m2,4_oda,orta_4_7_kat,1_banyo,yok,yok,yok,dusuk,orta,dusuk,yok,5_7_Bucuk_Milyon_TL_Arasi
Hatay,Antakya,Satilik,11_15_arasi,7,Kombi,bilinmiyor,yok,var,var,var,yok,var,yok,var,yok,yok,yok,yok,yok,yok,yok,yok,yok,yok,yok,yok,yok,yok,yok,yok,yok,yok,yok,yok,yok,yok,kademe_5,normal,bilinmiyor,kotu,100_125_m2,3_oda,yuksek_8_15_kat,1_banyo,yok,yok,yok,dusuk,yok,yok,yok,1_5_2_Milyon_TL_Arasi
Hatay,Kirikhan,Satilik,1_5_arasi,Bahce,Kombi,bilinmiyor,yok,var,yok,yok,yok,var,var,var,var,yok,yok,yok,yok,yok,yok,yok,yok,yok,yok,yok,yok,yok,yok,yok,yok,yok,yok,yok,yok,yok,kademe_5,normal,iyi,kotu,200_300_m2,3_oda,bilinmiyor,1_banyo,yok,yok,yok,dusuk,yok,yok,yok,5_7_Bucuk_Milyon_TL_Arasi
Tokat,Merkez,Satilik,11_15_arasi,2,Kombi,bilinmiyor,yok,var,var,var,yok,yok,var,yok,yok,yok,yok,yok,yok,yok,yok,yok,yok,yok,yok,yok,yok,yok,yok,yok,yok,var,yok,yok,yok,yok,kademe_5,normal,normal,bilinmiyor,100_125_m2,4_oda,orta_4_7_kat,1_banyo,yok,yok,yok,dusuk,orta,yok,yok,4_5_Milyon_TL_Arasi
Hatay,Iskenderun,Satilik,26_30_arasi,Ara_Kat,Kombi_Dogalgaz,bilinmiyor,yok,var,var,yok,yok,yok,yok,yok,yok,yok,yok,yok,yok,yok,yok,yok,yok,yok,yok,yok,yok,yok,yok,yok,yok,yok,yok,yok,yok,yok,kademe_5,iyi,normal,kotu,150_200_m2,4_oda,orta_4_7_kat,1_banyo,yok,yok,yok,dusuk,yok,yok,yok,5_7_Bucuk_Milyon_TL_Arasi
Hatay,Defne,Satilik,1_5_arasi,Bahce,Yerden_Isitma,bilinmiyor,yok,var,yok,var,yok,var,var,var,var,yok,var,var,yok,yok,yok,yok,yok,yok,yok,yok,yok,yok,var,yok,yok,yok,yok,yok,yok,yok,kademe_5,kotu,normal,kotu,300_m2_ve_ustu,4_oda,bilinmiyor,2_banyo,yok,dusuk,dusuk,orta,dusuk,dusuk,yok,10_Milyon_TL_Ustu
Tokat,Merkez,Satilik,1_5_arasi,17,Merkezi,bilinmiyor,yok,var,var,var,yok,yok,yok,var,var,yok,var,yok,yok,var,yok,var,yok,yok,yok,yok,yok,yok,var,yok,yok,var,yok,yok,yok,yok,kademe_5,bilinmiyor,bilinmiyor,bilinmiyor,150_200_m2,4_oda,cok_yuksek_16_ustu_kat,1_banyo,orta,yok,yok,dusuk,orta,yuksek,yok,5_7_Bucuk_Milyon_TL_Arasi
Cankiri,Merkez,Satilik,11_15_arasi,2,Merkezi,bilinmiyor,yok,var,var,var,yok,var,yok,var,yok,yok,var,yok,yok,var,yok,yok,yok,yok,yok,yok,yok,yok,yok,yok,yok,var,yok,yok,yok,yok,kademe_5,normal,kotu,bilinmiyor,150_200_m2,5_oda,orta_4_7_kat,2_banyo,dusuk,yok,yok,dusuk,yok,yuksek,yok,5_7_Bucuk_Milyon_TL_Arasi
Hatay,Arsuz,Satilik,1_5_arasi,1,Kombi_Dogalgaz,bilinmiyor,yok,var,var,var,yok,yok,var,var,var,yok,var,var,yok,var,yok,yok,yok,yok,yok,yok,yok,yok,yok,yok,yok,var,yok,yok,yok,yok,kademe_5,bilinmiyor,bilinmiyor,kotu,100_125_m2,3_oda,orta_4_7_kat,2_banyo,orta,dusuk,yok,dusuk,yok,yuksek,yok,7_Bucuk_10_Milyon_TL_Arasi
Tokat,Niksar,Satilik,0,Ara_Kat,Kombi_Dogalgaz,bilinmiyor,yok,var,var,var,yok,yok,yok,var,yok,yok,var,var,yok,var,yok,yok,yok,yok,yok,yok,yok,yok,yok,yok,yok,var,yok,yok,yok,yok,kademe_5,bilinmiyor,iyi,bilinmiyor,125_150_m2,4_oda,orta_4_7_kat,2_banyo,orta,dusuk,yok,orta,orta,yuksek,yok,4_5_Milyon_TL_Arasi
Erzurum,Palandoken,Satilik,21_25_arasi,Giris,Kombi,bilinmiyor,yok,yok,yok,var,yok,var,var,yok,var,yok,var,yok,yok,yok,yok,yok,yok,yok,yok,yok,yok,yok,yok,yok,yok,yok,yok,yok,yok,yok,kademe_5,bilinmiyor,normal,kotu,100_125_m2,4_oda,orta_4_7_kat,1_banyo,yok,yok,yok,orta,orta,orta,yok,1_5_Milyon_TL_Alti
Hatay,Payas,Satilik,1_5_arasi,Ara_Kat,Kombi_Dogalgaz,bilinmiyor,yok,var,var,var,yok,yok,yok,var,yok,yok,var,yok,yok,yok,yok,yok,yok,yok,yok,yok,yok,yok,yok,yok,yok,var,yok,yok,yok,yok,kademe_5,normal,normal,kotu,150_200_m2,4_oda,yuksek_8_15_kat,2_banyo,dusuk,yok,yok,orta,yok,yuksek,yok,3_4_Milyon_TL_Arasi
Hatay,Belen,Satilik,21_25_arasi,Bahce,Kombi,bilinmiyor,yok,var,yok,yok,yok,yok,yok,yok,yok,yok,yok,yok,yok,yok,yok,yok,yok,yok,yok,yok,yok,yok,yok,yok,yok,yok,yok,yok,yok,yok,kademe_5,normal,bilinmiyor,bilinmiyor,200_300_m2,5_oda,bilinmiyor,2_banyo,yok,yok,yok,dusuk,yok,yok,yok,5_7_Bucuk_Milyon_TL_Arasi
Nigde,Merkez,Satilik,16_20_arasi,Ara_Kat,Kombi_Dogalgaz,bilinmiyor,yok,var,var,var,var,yok,var,yok,yok,yok,var,var,yok,var,yok,yok,yok,yok,yok,yok,yok,yok,yok,yok,yok,yok,yok,yok,yok,yok,kademe_5,normal,kotu,bilinmiyor,150_200_m2,4_oda,orta_4_7_kat,2_banyo,dusuk,dusuk,yok,orta,orta,yuksek,yok,4_5_Milyon_TL_Arasi
Hatay,Iskenderun,Satilik,11_15_arasi,Zemin,Kombi,bilinmiyor,yok,var,yok,yok,yok,yok,yok,yok,yok,yok,yok,yok,yok,yok,yok,yok,yok,yok,yok,yok,yok,yok,yok,yok,yok,yok,yok,yok,yok,yok,kademe_5,iyi,kotu,bilinmiyor,200_300_m2,5_oda,orta_4_7_kat,3_banyo_ve_ustu,yok,yok,yok,orta,yok,yok,yok,10_Milyon_TL_Ustu
Hatay,Iskenderun,Satilik,21_25_arasi,Bahce,Klima,bilinmiyor,yok,var,yok,var,yok,yok,yok,yok,yok,yok,yok,yok,yok,yok,yok,yok,yok,yok,yok,yok,yok,var,yok,yok,yok,yok,yok,yok,yok,yok,kademe_5,normal,kotu,bilinmiyor,200_300_m2,4_oda,alcak_1_3_kat,1_banyo,yok,yok,yok,dusuk,yok,dusuk,yok,5_7_Bucuk_Milyon_TL_Arasi
Hatay,Defne,Satilik,1_5_arasi,3,Kombi,bilinmiyor,yok,var,var,var,yok,yok,var,var,var,yok,var,yok,yok,yok,yok,yok,yok,yok,yok,yok,yok,yok,var,yok,yok,var,yok,yok,yok,yok,kademe_5,normal,normal,bilinmiyor,150_200_m2,4_oda,orta_4_7_kat,1_banyo,yok,yok,dusuk,dusuk,dusuk,dusuk,yok,4_5_Milyon_TL_Arasi
Hatay,Erzin,Satilik,26_30_arasi,Bahce,Soba,bilinmiyor,yok,var,yok,yok,yok,var,var,var,var,yok,yok,yok,yok,yok,yok,yok,yok,yok,yok,yok,yok,yok,var,yok,yok,var,yok,yok,yok,yok,kademe_5,normal,normal,bilinmiyor,200_300_m2,4_oda,bilinmiyor,1_banyo,yok,yok,dusuk,orta,yuksek,orta,yok,5_7_Bucuk_Milyon_TL_Arasi
Hatay,Iskenderun,Satilik,11_15_arasi,Ara_Kat,Klima,bilinmiyor,yok,var,yok,yok,yok,yok,yok,yok,yok,yok,var,var,yok,yok,yok,yok,yok,yok,yok,yok,yok,yok,yok,yok,yok,yok,yok,yok,yok,yok,kademe_5,normal,normal,bilinmiyor,200_300_m2,5_oda,orta_4_7_kat,2_banyo,yok,yok,yok,dusuk,dusuk,orta,yok,4_5_Milyon_TL_Arasi
Hatay,Iskenderun,Satilik,31_ve_uzeri,Ara_Kat,Klima,bilinmiyor,yok,yok,yok,yok,yok,var,var,yok,yok,yok,yok,yok,yok,yok,yok,yok,yok,yok,yok,yok,yok,yok,yok,yok,yok,yok,yok,yok,yok,yok,kademe_5,normal,kotu,kotu,150_200_m2,4_oda,orta_4_7_kat,1_banyo,yok,yok,yok,dusuk,yok,dusuk,yok,3_4_Milyon_TL_Arasi
Nigde,Merkez,Satilik,21_25_arasi,5,Merkezi,bilinmiyor,yok,var,var,var,yok,var,yok,var,yok,yok,var,yok,yok,var,yok,yok,yok,yok,yok,yok,yok,yok,yok,yok,yok,yok,yok,yok,var,yok,kademe_5,normal,iyi,bilinmiyor,200_300_m2,5_oda,orta_4_7_kat,2_banyo,dusuk,dusuk,dusuk,dusuk,orta,yuksek,yok,5_7_Bucuk_Milyon_TL_Arasi
Hatay,Hassa,Satilik,1_5_arasi,4,Kombi_Dogalgaz,bilinmiyor,yok,var,var,var,yok,yok,var,yok,yok,yok,var,var,yok,yok,yok,yok,yok,yok,yok,yok,yok,yok,yok,yok,yok,var,yok,yok,yok,yok,kademe_5,iyi,iyi,bilinmiyor,150_200_m2,4_oda,orta_4_7_kat,2_banyo,yok,yok,yok,dusuk,yok,orta,yok,3_4_Milyon_TL_Arasi
Osmaniye,Kadirli,Satilik,6_10_arasi,4,isitma_yok,bilinmiyor,yok,var,var,var,yok,yok,yok,yok,yok,yok,yok,yok,yok,yok,yok,yok,yok,yok,yok,yok,yok,yok,yok,yok,yok,yok,yok,yok,yok,yok,kademe_5,bilinmiyor,bilinmiyor,bilinmiyor,50_75_m2,3_oda,yuksek_8_15_kat,1_banyo,yok,yok,yok,dusuk,dusuk,yok,yok,1_5_Milyon_TL_Alti
Tokat,Merkez,Satilik,6_10_arasi,6,Yerden_Isitma,bilinmiyor,yok,var,var,var,yok,var,yok,var,var,yok,var,var,yok,var,yok,yok,yok,yok,yok,var,yok,yok,var,yok,yok,var,yok,yok,yok,yok,kademe_5,iyi,bilinmiyor,iyi,150_200_m2,4_oda,yuksek_8_15_kat,2_banyo,dusuk,dusuk,dusuk,dusuk,yok,yuksek,yok,7_Bucuk_10_Milyon_TL_Arasi
Bartin,Amasra,Satilik,0,2,Klima,bilinmiyor,yok,yok,yok,yok,yok,yok,yok,var,yok,yok,yok,yok,yok,yok,yok,yok,yok,yok,yok,yok,yok,yok,yok,yok,yok,yok,yok,yok,yok,yok,kademe_5,bilinmiyor,bilinmiyor,bilinmiyor,50_75_m2,2_oda,alcak_1_3_kat,1_banyo,yok,yok,yok,dusuk,yok,dusuk,yok,3_4_Milyon_TL_Arasi
Kahramanmaras,Dulkadiroglu,Satilik,11_15_arasi,Bahce,Kombi,bilinmiyor,yok,var,yok,var,yok,var,var,var,yok,yok,yok,yok,yok,yok,yok,yok,yok,yok,yok,yok,yok,yok,var,yok,yok,var,yok,yok,yok,yok,kademe_5,bilinmiyor,normal,bilinmiyor,200_300_m2,4_oda,alcak_1_3_kat,2_banyo,yok,yok,yok,dusuk,yok,dusuk,yok,5_7_Bucuk_Milyon_TL_Arasi
Hatay,Iskenderun,Satilik,16_20_arasi,4,Klima,bilinmiyor,yok,yok,yok,yok,yok,yok,yok,yok,yok,yok,yok,yok,yok,yok,yok,yok,yok,yok,yok,yok,yok,yok,yok,yok,yok,yok,yok,yok,yok,yok,kademe_5,kotu,normal,kotu,125_150_m2,4_oda,orta_4_7_kat,1_banyo,yok,yok,yok,dusuk,yok,dusuk,yok,2_3_Milyon_TL_Arasi
Hatay,Belen,Satilik,6_10_arasi,Bahce,Kombi,bilinmiyor,yok,yok,yok,yok,yok,yok,yok,yok,yok,yok,yok,yok,yok,yok,yok,yok,yok,yok,yok,yok,yok,yok,yok,yok,yok,yok,yok,yok,yok,yok,kademe_5,iyi,normal,bilinmiyor,150_200_m2,4_oda,orta_4_7_kat,2_banyo,yok,yok,yok,dusuk,yok,yok,yok,3_4_Milyon_TL_Arasi
Hatay,Iskenderun,Satilik,6_10_arasi,4,Kombi_Dogalgaz,bilinmiyor,yok,var,var,var,yok,yok,yok,yok,yok,yok,yok,var,yok,yok,yok,yok,yok,yok,yok,yok,yok,yok,yok,yok,yok,yok,yok,yok,yok,yok,kademe_5,iyi,bilinmiyor,bilinmiyor,150_200_m2,4_oda,yuksek_8_15_kat,2_banyo,dusuk,yok,yok,dusuk,yok,orta,yok,4_5_Milyon_TL_Arasi
Hatay,Arsuz,Satilik,6_10_arasi,Bahce,Gunes_Enerjisi,bilinmiyor,yok,var,yok,var,yok,var,var,var,var,yok,yok,yok,yok,yok,yok,yok,yok,yok,yok,yok,yok,yok,yok,yok,yok,yok,yok,yok,yok,yok,kademe_5,bilinmiyor,bilinmiyor,bilinmiyor,200_300_m2,5_oda,orta_4_7_kat,3_banyo_ve_ustu,yok,yok,yok,dusuk,dusuk,yok,yok,7_Bucuk_10_Milyon_TL_Arasi
Hatay,Antakya,Satilik,6_10_arasi,Yuksek_Giris,Kombi,bilinmiyor,yok,var,yok,var,yok,var,yok,var,yok,yok,var,yok,yok,yok,yok,yok,yok,yok,yok,yok,yok,yok,yok,yok,yok,var,yok,yok,yok,yok,kademe_5,normal,normal,iyi,150_200_m2,4_oda,orta_4_7_kat,2_banyo,yok,yok,dusuk,orta,yuksek,orta,yok,2_3_Milyon_TL_Arasi
Hatay,Arsuz,Satilik,1_5_arasi,En_Ust_Kat,Klima,bilinmiyor,yok,var,var,var,yok,var,var,var,var,yok,var,var,yok,yok,yok,yok,yok,yok,yok,yok,yok,var,var,yok,yok,var,var,yok,var,yok,kademe_5,normal,normal,kotu,300_m2_ve_ustu,5_oda,orta_4_7_kat,3_banyo_ve_ustu,dusuk,yok,dusuk,orta,dusuk,yuksek,yok,5_7_Bucuk_Milyon_TL_Arasi
Nigde,Ulukisla,Satilik,1_5_arasi,Giris,Merkezi,bilinmiyor,yok,yok,yok,yok,yok,var,yok,var,yok,yok,yok,yok,yok,yok,yok,yok,yok,yok,yok,yok,yok,yok,yok,yok,yok,yok,yok,yok,yok,yok,kademe_5,normal,kotu,bilinmiyor,100_125_m2,4_oda,orta_4_7_kat,1_banyo,yok,yok,yok,dusuk,yok,yok,yok,2_3_Milyon_TL_Arasi
Hatay,Antakya,Satilik,11_15_arasi,3,Merkezi,bilinmiyor,yok,var,var,yok,yok,var,var,var,yok,yok,var,yok,yok,yok,yok,yok,yok,yok,yok,yok,yok,yok,yok,yok,yok,var,yok,yok,yok,yok,kademe_5,normal,kotu,kotu,100_125_m2,3_oda,yuksek_8_15_kat,1_banyo,dusuk,dusuk,dusuk,dusuk,dusuk,yuksek,yok,1_5_2_Milyon_TL_Arasi
Hatay,Arsuz,Satilik,0,2,Kombi,bilinmiyor,yok,var,var,var,yok,var,yok,yok,var,yok,var,var,yok,var,yok,yok,yok,yok,var,yok,yok,yok,yok,yok,yok,yok,yok,yok,yok,yok,kademe_5,bilinmiyor,bilinmiyor,kotu,125_150_m2,4_oda,orta_4_7_kat,2_banyo,dusuk,dusuk,yok,dusuk,dusuk,yuksek,yok,5_7_Bucuk_Milyon_TL_Arasi
Kahramanmaras,Dulkadiroglu,Satilik,21_25_arasi,bilinmiyor,belirtilmemis_komur_odun,bilinmiyor,yok,yok,yok,var,var,var,yok,yok,yok,yok,yok,yok,yok,yok,yok,yok,yok,yok,yok,yok,yok,yok,yok,yok,yok,yok,yok,yok,yok,yok,kademe_5,bilinmiyor,bilinmiyor,bilinmiyor,300_m2_ve_ustu,7_oda_ve_ustu,alcak_1_3_kat,2_banyo,yok,yok,yok,dusuk,yok,yok,yok,4_5_Milyon_TL_Arasi
Tokat,Niksar,Satilik,16_20_arasi,Ara_Kat,Kombi_Dogalgaz,bilinmiyor,yok,yok,yok,yok,var,var,var,var,var,yok,yok,yok,yok,yok,yok,yok,yok,yok,yok,yok,yok,yok,yok,yok,yok,yok,yok,yok,yok,yok,kademe_5,normal,normal,kotu,150_200_m2,4_oda,orta_4_7_kat,2_banyo,yok,yok,yok,dusuk,yok,yok,yok,3_4_Milyon_TL_Arasi
Hatay,Antakya,Satilik,6_10_arasi,Giris,Kombi,bilinmiyor,yok,yok,var,yok,yok,yok,yok,yok,yok,yok,yok,yok,yok,yok,yok,yok,yok,yok,yok,yok,yok,yok,yok,yok,yok,yok,yok,yok,yok,yok,kademe_5,bilinmiyor,normal,iyi,125_150_m2,4_oda,yuksek_8_15_kat,2_banyo,yok,yok,yok,dusuk,yok,yok,yok,1_5_2_Milyon_TL_Arasi
Tokat,Merkez,Satilik,1_5_arasi,3,Yerden_Isitma,bilinmiyor,yok,yok,var,var,yok,yok,yok,yok,var,yok,yok,yok,yok,yok,yok,yok,yok,yok,yok,yok,yok,yok,yok,yok,yok,yok,yok,yok,yok,yok,kademe_5,iyi,iyi,bilinmiyor,0_50_m2,2_oda,orta_4_7_kat,1_banyo,yok,yok,yok,dusuk,yok,yok,yok,2_3_Milyon_TL_Arasi
Hatay,Antakya,Satilik,1_5_arasi,bilinmiyor,Klima,bilinmiyor,yok,yok,yok,yok,yok,yok,yok,yok,yok,yok,yok,yok,yok,yok,yok,yok,yok,yok,yok,yok,yok,yok,yok,yok,yok,yok,yok,yok,yok,yok,kademe_5,bilinmiyor,bilinmiyor,bilinmiyor,150_200_m2,5_oda,alcak_1_3_kat,1_banyo,yok,yok,yok,dusuk,yok,dusuk,yok,10_Milyon_TL_Ustu
Hatay,Arsuz,Satilik,0,3,isitma_yok,bilinmiyor,yok,var,var,var,yok,yok,yok,yok,yok,yok,yok,yok,yok,yok,yok,yok,yok,yok,yok,yok,yok,yok,yok,yok,yok,yok,yok,yok,yok,yok,kademe_5,iyi,bilinmiyor,bilinmiyor,125_150_m2,4_oda,orta_4_7_kat,2_banyo,yok,yok,yok,dusuk,dusuk,dusuk,yok,4_5_Milyon_TL_Arasi
Hatay,Iskenderun,Satilik,1_5_arasi,2,Kombi,bilinmiyor,yok,var,var,yok,yok,var,var,var,yok,yok,var,var,yok,var,yok,yok,yok,yok,yok,yok,yok,yok,yok,yok,yok,yok,yok,yok,yok,yok,kademe_5,normal,normal,bilinmiyor,150_200_m2,4_oda,orta_4_7_kat,2_banyo,yok,yok,yok,orta,yuksek,dusuk,yok,5_7_Bucuk_Milyon_TL_Arasi
Bartin,Merkez,Satilik,0,Ara_Kat,Kombi_Dogalgaz,bilinmiyor,yok,var,var,var,yok,var,var,var,yok,yok,var,var,yok,var,yok,yok,yok,var,yok,yok,yok,yok,var,yok,yok,yok,yok,yok,yok,yok,kademe_5,iyi,normal,bilinmiyor,100_125_m2,3_oda,orta_4_7_kat,2_banyo,dusuk,yok,yok,dusuk,dusuk,yuksek,yok,5_7_Bucuk_Milyon_TL_Arasi
Erzurum,Palandoken,Satilik,0,3,Merkezi,bilinmiyor,yok,var,var,var,yok,var,yok,var,yok,yok,var,var,yok,yok,yok,yok,yok,yok,yok,yok,yok,yok,yok,yok,yok,yok,yok,yok,yok,yok,kademe_5,iyi,iyi,bilinmiyor,150_200_m2,5_oda,yuksek_8_15_kat,2_banyo,dusuk,dusuk,yok,dusuk,orta,yuksek,yok,7_Bucuk_10_Milyon_TL_Arasi
Hatay,Iskenderun,Satilik,16_20_arasi,bilinmiyor,Kombi,bilinmiyor,yok,yok,yok,yok,yok,var,var,var,var,yok,yok,yok,yok,yok,yok,yok,yok,yok,yok,yok,yok,yok,yok,yok,yok,yok,yok,yok,yok,yok,kademe_5,bilinmiyor,bilinmiyor,bilinmiyor,300_m2_ve_ustu,4_oda,alcak_1_3_kat,2_banyo,yok,yok,yok,dusuk,yok,yok,yok,10_Milyon_TL_Ustu
Hatay,Antakya,Satilik,0,Yuksek_Giris,Kombi_Dogalgaz,bilinmiyor,yok,var,var,var,yok,var,var,yok,var,yok,var,yok,yok,var,yok,yok,yok,var,yok,yok,yok,yok,var,yok,yok,var,yok,yok,yok,yok,kademe_5,normal,bilinmiyor,bilinmiyor,125_150_m2,5_oda,orta_4_7_kat,1_banyo,dusuk,dusuk,yok,orta,orta,yuksek,yok,3_4_Milyon_TL_Arasi
Tokat,Zile,Satilik,0,Yuksek_Giris,Kombi,bilinmiyor,yok,var,var,var,yok,yok,yok,yok,yok,yok,yok,yok,yok,yok,yok,yok,yok,yok,yok,yok,yok,yok,yok,yok,yok,yok,yok,yok,yok,yok,kademe_5,normal,bilinmiyor,kotu,150_200_m2,4_oda,orta_4_7_kat,1_banyo,yok,yok,yok,dusuk,yok,yok,yok,3_4_Milyon_TL_Arasi
Hatay,Iskenderun,Satilik,1_5_arasi,En_Ust_Kat,Kombi_Dogalgaz,bilinmiyor,yok,yok,yok,yok,yok,yok,yok,var,yok,yok,yok,yok,yok,yok,yok,yok,yok,yok,yok,yok,yok,yok,yok,yok,yok,yok,yok,yok,yok,yok,kademe_5,kotu,normal,iyi,200_300_m2,4_oda,orta_4_7_kat,2_banyo,yok,yok,yok,dusuk,yok,yok,yok,5_7_Bucuk_Milyon_TL_Arasi
Tokat,Merkez,Satilik,31_ve_uzeri,bilinmiyor,Soba,bilinmiyor,yok,yok,yok,yok,yok,yok,yok,var,var,yok,yok,yok,yok,yok,yok,yok,yok,yok,yok,yok,yok,yok,yok,yok,yok,yok,yok,yok,yok,yok,kademe_5,kotu,bilinmiyor,bilinmiyor,100_125_m2,4_oda,orta_4_7_kat,1_banyo,yok,yok,yok,dusuk,yok,yok,yok,2_3_Milyon_TL_Arasi
Hatay,Arsuz,Satilik,0,Ara_Kat,Kombi_Dogalgaz,bilinmiyor,yok,yok,var,yok,yok,yok,yok,var,var,yok,yok,yok,yok,yok,yok,yok,yok,yok,yok,yok,yok,yok,yok,yok,yok,yok,yok,yok,yok,yok,kademe_5,bilinmiyor,bilinmiyor,bilinmiyor,100_125_m2,4_oda,orta_4_7_kat,1_banyo,yok,yok,yok,dusuk,yok,yok,yok,4_5_Milyon_TL_Arasi
Nigde,Merkez,Satilik,21_25_arasi,5,Merkezi,bilinmiyor,yok,var,yok,var,yok,var,var,var,yok,yok,yok,yok,yok,yok,yok,yok,yok,yok,yok,yok,yok,yok,yok,yok,yok,yok,yok,yok,yok,yok,kademe_5,kotu,kotu,kotu,150_200_m2,4_oda,orta_4_7_kat,1_banyo,yok,yok,yok,dusuk,yok,yok,yok,3_4_Milyon_TL_Arasi
Tokat,Niksar,Satilik,11_15_arasi,Ara_Kat,Kombi_Dogalgaz,bilinmiyor,yok,var,var,var,yok,yok,yok,var,var,yok,yok,var,yok,yok,yok,yok,yok,yok,yok,yok,yok,yok,var,yok,yok,yok,yok,yok,yok,yok,kademe_5,kotu,kotu,kotu,150_200_m2,4_oda,orta_4_7_kat,1_banyo,yok,yok,yok,dusuk,dusuk,orta,dusuk,4_5_Milyon_TL_Arasi
Tokat,Merkez,Satilik,0,bilinmiyor,Yerden_Isitma,bilinmiyor,yok,var,yok,yok,yok,yok,yok,yok,yok,yok,yok,var,yok,yok,yok,yok,yok,yok,yok,yok,yok,yok,yok,yok,yok,yok,yok,yok,yok,yok,kademe_5,normal,normal,iyi,200_300_m2,6_oda,alcak_1_3_kat,2_banyo,yok,yok,yok,dusuk,yok,orta,yok,10_Milyon_TL_Ustu
Hatay,Iskenderun,Satilik,11_15_arasi,3,Klima,bilinmiyor,yok,var,var,var,yok,var,yok,var,yok,yok,var,yok,yok,var,yok,yok,yok,yok,yok,yok,yok,yok,yok,yok,yok,var,yok,yok,yok,yok,kademe_5,kotu,kotu,bilinmiyor,75_100_m2,3_oda,orta_4_7_kat,1_banyo,yok,yok,yok,dusuk,dusuk,yuksek,yok,2_3_Milyon_TL_Arasi
Erzurum,Askale,Satilik,16_20_arasi,1,bilinmiyor,bilinmiyor,yok,yok,yok,yok,yok,yok,yok,yok,yok,yok,yok,yok,yok,yok,yok,yok,yok,yok,yok,yok,yok,yok,yok,yok,yok,yok,yok,yok,yok,yok,kademe_5,bilinmiyor,kotu,bilinmiyor,150_200_m2,4_oda,alcak_1_3_kat,1_banyo,yok,yok,yok,dusuk,yok,yok,yok,1_5_2_Milyon_TL_Arasi
Kahramanmaras,Onikisubat,Satilik,0,1,Kombi,bilinmiyor,yok,var,yok,var,yok,yok,var,var,yok,yok,yok,yok,yok,yok,yok,yok,yok,yok,yok,yok,yok,yok,yok,yok,yok,yok,yok,yok,yok,yok,kademe_5,normal,bilinmiyor,bilinmiyor,150_200_m2,4_oda,orta_4_7_kat,1_banyo,yok,yok,yok,dusuk,yok,dusuk,yok,3_4_Milyon_TL_Arasi
Kahramanmaras,Onikisubat,Satilik,11_15_arasi,1,bilinmiyor,bilinmiyor,yok,var,yok,yok,yok,yok,yok,yok,yok,yok,yok,yok,yok,yok,yok,yok,yok,yok,yok,yok,yok,yok,yok,yok,yok,yok,yok,yok,yok,yok,kademe_5,bilinmiyor,bilinmiyor,bilinmiyor,200_300_m2,5_oda,alcak_1_3_kat,2_banyo,yok,yok,yok,dusuk,yok,yok,yok,5_7_Bucuk_Milyon_TL_Arasi
Kahramanmaras,Dulkadiroglu,Satilik,6_10_arasi,2,Kombi,bilinmiyor,yok,yok,yok,var,yok,yok,yok,yok,yok,yok,yok,yok,yok,yok,yok,yok,yok,yok,yok,yok,yok,yok,yok,yok,yok,yok,yok,yok,yok,yok,kademe_5,bilinmiyor,normal,bilinmiyor,100_125_m2,3_oda,alcak_1_3_kat,1_banyo,yok,yok,yok,dusuk,yok,yok,yok,3_4_Milyon_TL_Arasi
Hatay,Iskenderun,Satilik,26_30_arasi,2,belirtilmemis_elektrik,bilinmiyor,yok,yok,yok,yok,yok,yok,yok,yok,yok,yok,yok,yok,yok,yok,yok,yok,yok,yok,yok,yok,yok,yok,yok,yok,yok,yok,yok,yok,yok,yok,kademe_5,normal,normal,kotu,150_200_m2,4_oda,orta_4_7_kat,1_banyo,yok,yok,yok,dusuk,yok,yok,yok,3_4_Milyon_TL_Arasi
Hatay,Arsuz,Satilik,26_30_arasi,bilinmiyor,Kombi,bilinmiyor,yok,yok,yok,var,yok,var,var,var,var,yok,var,yok,yok,yok,yok,yok,yok,yok,var,yok,yok,yok,var,yok,yok,yok,yok,var,yok,yok,kademe_5,iyi,iyi,bilinmiyor,300_m2_ve_ustu,4_oda,alcak_1_3_kat,2_banyo,yok,dusuk,yok,dusuk,yok,dusuk,yok,10_Milyon_TL_Ustu
Nigde,Bor,Satilik,6_10_arasi,4,Merkezi,bilinmiyor,yok,var,var,var,yok,yok,var,yok,var,yok,var,yok,yok,yok,yok,yok,yok,yok,yok,yok,yok,yok,yok,yok,yok,yok,yok,yok,yok,yok,kademe_5,kotu,kotu,bilinmiyor,125_150_m2,4_oda,orta_4_7_kat,1_banyo,yok,dusuk,yok,dusuk,yok,orta,yok,3_4_Milyon_TL_Arasi
Hatay,Antakya,Satilik,11_15_arasi,Ara_Kat,Kombi_Dogalgaz,bilinmiyor,yok,var,var,var,yok,var,yok,var,yok,yok,var,yok,yok,yok,yok,yok,yok,yok,yok,yok,yok,yok,var,yok,yok,var,yok,yok,yok,yok,kademe_5,iyi,kotu,bilinmiyor,125_150_m2,4_oda,yuksek_8_15_kat,1_banyo,dusuk,dusuk,yok,dusuk,orta,yuksek,yok,2_3_Milyon_TL_Arasi
Hatay,Dortyol,Satilik,1_5_arasi,4,Kombi,bilinmiyor,yok,var,yok,var,yok,yok,yok,yok,yok,yok,yok,yok,yok,yok,yok,yok,yok,yok,yok,yok,yok,yok,var,yok,yok,var,yok,yok,yok,yok,kademe_5,iyi,normal,normal,150_200_m2,4_oda,orta_4_7_kat,2_banyo,yok,yok,yok,orta,yok,yok,yok,4_5_Milyon_TL_Arasi
Tokat,Merkez,Satilik,0,2,Kombi,bilinmiyor,yok,var,yok,var,yok,yok,var,yok,yok,yok,yok,yok,yok,yok,yok,yok,yok,yok,yok,yok,yok,yok,var,yok,yok,var,yok,yok,yok,yok,kademe_5,iyi,bilinmiyor,bilinmiyor,150_200_m2,5_oda,orta_4_7_kat,2_banyo,dusuk,yok,yok,dusuk,orta,orta,yok,5_7_Bucuk_Milyon_TL_Arasi
Tokat,Merkez,Satilik,0,2,Kombi_Dogalgaz,bilinmiyor,yok,yok,var,yok,yok,yok,var,var,yok,yok,yok,yok,yok,yok,yok,yok,yok,yok,yok,yok,yok,yok,yok,yok,yok,yok,yok,yok,yok,yok,kademe_5,iyi,iyi,iyi,125_150_m2,4_oda,orta_4_7_kat,1_banyo,yok,yok,yok,yok,yok,yok,yok,5_7_Bucuk_Milyon_TL_Arasi
Erzurum,Palandoken,Satilik,0,5,Merkezi,bilinmiyor,yok,var,var,var,yok,yok,var,var,yok,yok,var,var,yok,var,yok,yok,yok,yok,yok,yok,yok,yok,var,yok,yok,var,yok,yok,yok,yok,kademe_5,iyi,iyi,bilinmiyor,150_200_m2,5_oda,yuksek_8_15_kat,2_banyo,dusuk,dusuk,dusuk,dusuk,orta,yuksek,yok,5_7_Bucuk_Milyon_TL_Arasi
Nigde,Merkez,Satilik,0,3,Merkezi,bilinmiyor,yok,var,var,var,yok,var,var,var,yok,yok,yok,yok,yok,yok,yok,yok,yok,yok,yok,yok,yok,yok,yok,yok,yok,yok,yok,yok,yok,yok,kademe_5,bilinmiyor,bilinmiyor,bilinmiyor,125_150_m2,4_oda,yuksek_8_15_kat,2_banyo,yok,yok,yok,dusuk,yok,dusuk,yok,5_7_Bucuk_Milyon_TL_Arasi
Hatay,Arsuz,Satilik,21_25_arasi,2,Gunes_Enerjisi,bilinmiyor,yok,yok,yok,yok,yok,yok,yok,yok,yok,yok,yok,yok,yok,yok,yok,yok,yok,yok,yok,yok,yok,yok,yok,yok,yok,yok,yok,yok,yok,yok,kademe_5,bilinmiyor,bilinmiyor,bilinmiyor,100_125_m2,3_oda,alcak_1_3_kat,1_banyo,yok,yok,yok,dusuk,yok,yok,yok,1_5_2_Milyon_TL_Arasi
Hatay,Iskenderun,Satilik,1_5_arasi,1,Kombi,bilinmiyor,yok,var,var,var,var,var,var,yok,yok,yok,var,yok,yok,yok,yok,yok,yok,yok,yok,yok,yok,yok,yok,yok,yok,var,yok,yok,yok,yok,kademe_5,bilinmiyor,bilinmiyor,bilinmiyor,50_75_m2,2_oda,yuksek_8_15_kat,1_banyo,dusuk,yok,yok,dusuk,orta,yuksek,yok,2_3_Milyon_TL_Arasi
Kahramanmaras,Onikisubat,Satilik,0,1,Merkezi,bilinmiyor,yok,var,yok,var,yok,yok,yok,yok,var,yok,var,yok,yok,yok,yok,yok,yok,yok,yok,yok,yok,yok,yok,yok,yok,var,yok,yok,yok,yok,kademe_5,normal,bilinmiyor,bilinmiyor,125_150_m2,5_oda,orta_4_7_kat,2_banyo,dusuk,dusuk,yok,orta,orta,orta,yok,4_5_Milyon_TL_Arasi
Hatay,Iskenderun,Satilik,1_5_arasi,Zemin,Kombi_Dogalgaz,bilinmiyor,yok,yok,var,var,yok,yok,var,var,yok,yok,var,var,yok,yok,yok,yok,yok,yok,yok,yok,yok,yok,var,yok,yok,yok,yok,yok,yok,yok,kademe_5,kotu,normal,bilinmiyor,150_200_m2,4_oda,orta_4_7_kat,2_banyo,dusuk,yok,yok,dusuk,yok,yuksek,yok,2_3_Milyon_TL_Arasi
Kahramanmaras,Pazarcik,Satilik,6_10_arasi,1,Kombi,bilinmiyor,yok,var,yok,var,yok,yok,var,var,yok,yok,yok,yok,yok,yok,yok,yok,yok,yok,yok,yok,yok,yok,yok,yok,yok,var,yok,yok,yok,yok,kademe_5,bilinmiyor,normal,bilinmiyor,150_200_m2,4_oda,orta_4_7_kat,1_banyo,yok,yok,yok,orta,yuksek,yuksek,yok,3_4_Milyon_TL_Arasi
Hatay,Iskenderun,Satilik,1_5_arasi,1,Kombi_Dogalgaz,bilinmiyor,yok,var,var,var,yok,yok,var,var,var,yok,var,var,yok,var,yok,yok,yok,yok,var,yok,yok,yok,var,yok,yok,yok,yok,yok,yok,yok,kademe_5,iyi,normal,iyi,150_200_m2,4_oda,orta_4_7_kat,2_banyo,dusuk,dusuk,yok,dusuk,yok,yuksek,yok,10_Milyon_TL_Ustu
Yozgat,Merkez,Satilik,1_5_arasi,2,Merkezi,bilinmiyor,yok,var,var,var,yok,yok,yok,yok,yok,yok,var,yok,yok,var,yok,yok,yok,yok,yok,yok,yok,yok,var,yok,yok,var,yok,yok,yok,yok,kademe_5,iyi,iyi,bilinmiyor,75_100_m2,3_oda,orta_4_7_kat,1_banyo,yok,yok,dusuk,dusuk,dusuk,yuksek,yok,2_3_Milyon_TL_Arasi
Bartin,Merkez,Satilik,26_30_arasi,En_Ust_Kat,Kombi_Dogalgaz,bilinmiyor,yok,var,yok,yok,yok,yok,yok,var,var,yok,yok,yok,yok,yok,yok,yok,yok,yok,yok,yok,yok,yok,yok,yok,yok,yok,yok,yok,yok,yok,kademe_5,iyi,bilinmiyor,bilinmiyor,125_150_m2,4_oda,orta_4_7_kat,1_banyo,yok,yok,yok,yok,yok,yok,yok,3_4_Milyon_TL_Arasi
Yozgat,Merkez,Satilik,0,6,Yerden_Isitma,bilinmiyor,yok,var,var,var,yok,var,yok,var,yok,yok,var,yok,yok,var,yok,yok,yok,yok,yok,yok,yok,yok,var,yok,yok,var,yok,yok,yok,yok,kademe_5,kotu,bilinmiyor,bilinmiyor,75_100_m2,3_oda,yuksek_8_15_kat,1_banyo,dusuk,yok,yok,dusuk,orta,yuksek,yok,2_3_Milyon_TL_Arasi
Erzurum,Palandoken,Satilik,11_15_arasi,Bodrum,Merkezi,bilinmiyor,yok,yok,yok,yok,yok,var,var,yok,yok,yok,yok,yok,yok,yok,yok,yok,yok,yok,yok,yok,yok,yok,yok,yok,yok,yok,yok,yok,yok,yok,kademe_5,normal,normal,normal,150_200_m2,4_oda,orta_4_7_kat,1_banyo,yok,yok,yok,dusuk,yok,yok,yok,1_5_2_Milyon_TL_Arasi
Nigde,Merkez,Satilik,0,2,Kombi_Dogalgaz,bilinmiyor,yok,var,var,var,yok,yok,var,var,yok,yok,var,yok,yok,var,yok,yok,yok,var,yok,yok,yok,yok,var,yok,yok,var,yok,yok,yok,yok,kademe_5,bilinmiyor,iyi,bilinmiyor,75_100_m2,2_oda,yuksek_8_15_kat,1_banyo,dusuk,dusuk,yok,orta,yuksek,yuksek,yok,5_7_Bucuk_Milyon_TL_Arasi
Hatay,Arsuz,Satilik,26_30_arasi,bilinmiyor,Gunes_Enerjisi,bilinmiyor,yok,yok,yok,yok,yok,yok,yok,yok,yok,yok,yok,yok,yok,yok,yok,yok,yok,yok,yok,yok,yok,yok,yok,yok,yok,yok,yok,var,yok,yok,kademe_5,bilinmiyor,bilinmiyor,bilinmiyor,300_m2_ve_ustu,4_oda,alcak_1_3_kat,1_banyo,yok,yok,yok,dusuk,yok,yok,yok,7_Bucuk_10_Milyon_TL_Arasi
Hatay,Dortyol,Satilik,26_30_arasi,1,Kombi,bilinmiyor,yok,var,var,var,yok,yok,var,var,var,yok,yok,yok,yok,yok,yok,yok,yok,yok,yok,yok,yok,yok,yok,yok,yok,yok,yok,yok,yok,yok,kademe_5,normal,iyi,bilinmiyor,150_200_m2,4_oda,orta_4_7_kat,1_banyo,yok,yok,yok,dusuk,yok,yok,yok,3_4_Milyon_TL_Arasi
Tokat,Merkez,Satilik,0,3,Kombi,bilinmiyor,yok,var,yok,var,yok,var,var,var,var,yok,var,yok,yok,yok,yok,yok,yok,yok,yok,yok,yok,yok,yok,yok,yok,var,yok,yok,yok,yok,kademe_5,kotu,kotu,bilinmiyor,75_100_m2,2_oda,orta_4_7_kat,1_banyo,yok,yok,dusuk,orta,yuksek,yuksek,yok,5_7_Bucuk_Milyon_TL_Arasi
Hatay,Dortyol,Satilik,6_10_arasi,Ara_Kat,Kombi_Dogalgaz,bilinmiyor,yok,var,var,var,yok,var,yok,var,var,yok,var,var,yok,yok,yok,yok,yok,yok,yok,yok,yok,var,var,yok,yok,var,yok,yok,yok,yok,kademe_5,iyi,normal,bilinmiyor,150_200_m2,4_oda,orta_4_7_kat,2_banyo,dusuk,yok,dusuk,orta,orta,yuksek,yok,4_5_Milyon_TL_Arasi
Tokat,Merkez,Satilik,31_ve_uzeri,1,bilinmiyor,bilinmiyor,yok,var,yok,yok,yok,yok,yok,yok,yok,yok,yok,yok,yok,yok,yok,yok,yok,yok,yok,yok,yok,yok,yok,yok,yok,yok,yok,yok,yok,yok,kademe_5,bilinmiyor,kotu,bilinmiyor,100_125_m2,4_oda,alcak_1_3_kat,1_banyo,yok,yok,yok,dusuk,yok,yok,yok,3_4_Milyon_TL_Arasi
Kahramanmaras,Onikisubat,Satilik,0,4,Kombi,bilinmiyor,yok,var,yok,var,yok,yok,var,yok,var,yok,var,yok,yok,yok,yok,yok,yok,yok,yok,yok,yok,yok,var,yok,yok,yok,yok,yok,yok,yok,kademe_5,bilinmiyor,bilinmiyor,bilinmiyor,125_150_m2,4_oda,orta_4_7_kat,1_banyo,dusuk,yok,yok,dusuk,dusuk,dusuk,yok,4_5_Milyon_TL_Arasi
Nigde,Merkez,Satilik,1_5_arasi,Bahce,Yerden_Isitma,bilinmiyor,yok,var,yok,var,var,var,var,var,yok,yok,var,var,yok,yok,var,yok,yok,yok,yok,yok,yok,yok,var,var,yok,var,yok,yok,yok,yok,kademe_5,bilinmiyor,bilinmiyor,bilinmiyor,200_300_m2,4_oda,alcak_1_3_kat,1_banyo,yok,orta,dusuk,dusuk,orta,yuksek,yok,7_Bucuk_10_Milyon_TL_Arasi
Kahramanmaras,Onikisubat,Satilik,0,6,Merkezi,bilinmiyor,yok,yok,yok,var,yok,var,yok,var,yok,yok,var,yok,yok,var,yok,yok,yok,yok,yok,yok,yok,yok,yok,yok,yok,var,yok,yok,yok,yok,kademe_5,bilinmiyor,bilinmiyor,bilinmiyor,100_125_m2,3_oda,yuksek_8_15_kat,1_banyo,dusuk,dusuk,dusuk,dusuk,yuksek,yuksek,yok,5_7_Bucuk_Milyon_TL_Arasi
Nigde,Merkez,Satilik,16_20_arasi,2,Kombi,bilinmiyor,yok,var,yok,var,var,var,var,yok,yok,yok,var,yok,yok,yok,var,yok,yok,yok,yok,yok,yok,yok,yok,yok,yok,var,yok,yok,yok,yok,kademe_5,kotu,kotu,kotu,100_125_m2,3_oda,orta_4_7_kat,1_banyo,dusuk,yok,dusuk,dusuk,yuksek,yuksek,yok,2_3_Milyon_TL_Arasi
Hatay,Dortyol,Satilik,6_10_arasi,3,Kombi,bilinmiyor,yok,var,yok,yok,yok,var,var,yok,var,yok,var,var,yok,var,yok,yok,yok,yok,var,yok,yok,yok,var,yok,yok,var,yok,yok,yok,yok,kademe_5,normal,iyi,bilinmiyor,100_125_m2,3_oda,orta_4_7_kat,2_banyo,yok,dusuk,yok,dusuk,orta,yuksek,yok,5_7_Bucuk_Milyon_TL_Arasi
Hatay,Antakya,Satilik,0,2,Kombi,bilinmiyor,yok,var,var,var,yok,yok,yok,var,yok,yok,yok,yok,yok,yok,yok,yok,yok,yok,yok,yok,yok,yok,var,yok,yok,yok,yok,yok,yok,yok,kademe_5,bilinmiyor,kotu,bilinmiyor,125_150_m2,3_oda,orta_4_7_kat,1_banyo,yok,yok,dusuk,orta,yuksek,dusuk,yok,1_5_Milyon_TL_Alti
Hatay,Antakya,Satilik,1_5_arasi,1,Kombi_Dogalgaz,bilinmiyor,yok,var,var,yok,yok,yok,var,var,yok,yok,yok,yok,yok,yok,yok,yok,yok,yok,yok,yok,yok,yok,yok,yok,yok,yok,yok,yok,yok,yok,kademe_5,iyi,normal,bilinmiyor,100_125_m2,3_oda,orta_4_7_kat,1_banyo,yok,yok,yok,dusuk,yok,yok,yok,2_3_Milyon_TL_Arasi
Hatay,Arsuz,Satilik,11_15_arasi,2,Klima,bilinmiyor,yok,yok,yok,yok,yok,yok,yok,yok,yok,yok,yok,yok,yok,yok,yok,yok,yok,yok,yok,yok,yok,yok,yok,yok,yok,yok,yok,yok,yok,yok,kademe_5,kotu,normal,kotu,150_200_m2,4_oda,alcak_1_3_kat,1_banyo,yok,yok,yok,dusuk,yok,dusuk,yok,10_Milyon_TL_Ustu
Hatay,Antakya,Satilik,0,4,Merkezi,bilinmiyor,yok,var,var,var,yok,var,var,var,var,yok,var,yok,yok,yok,yok,yok,yok,yok,yok,yok,yok,yok,yok,yok,yok,var,yok,yok,yok,yok,kademe_5,bilinmiyor,bilinmiyor,bilinmiyor,100_125_m2,6_oda,orta_4_7_kat,1_banyo,dusuk,yok,yok,dusuk,orta,yuksek,yok,3_4_Milyon_TL_Arasi
Yozgat,Sorgun,Satilik,16_20_arasi,4,Kombi,bilinmiyor,yok,var,var,var,yok,var,var,var,yok,yok,yok,yok,yok,yok,yok,yok,yok,yok,yok,yok,yok,yok,yok,yok,yok,yok,yok,yok,yok,yok,kademe_5,iyi,normal,bilinmiyor,200_300_m2,5_oda,orta_4_7_kat,2_banyo,yok,yok,yok,dusuk,yok,yok,yok,2_3_Milyon_TL_Arasi
Yozgat,Merkez,Satilik,16_20_arasi,4,Kombi_Dogalgaz,bilinmiyor,yok,var,var,yok,yok,yok,yok,var,var,yok,yok,yok,yok,yok,yok,yok,yok,yok,yok,yok,yok,yok,yok,yok,yok,yok,yok,yok,yok,yok,kademe_5,kotu,kotu,bilinmiyor,125_150_m2,4_oda,orta_4_7_kat,1_banyo,yok,yok,yok,yok,yok,yok,yok,3_4_Milyon_TL_Arasi
Osmaniye,Merkez,Satilik,6_10_arasi,bilinmiyor,Klima,bilinmiyor,yok,var,yok,yok,yok,var,var,var,var,yok,yok,yok,yok,yok,yok,yok,yok,yok,yok,yok,yok,yok,var,yok,yok,var,var,yok,yok,yok,kademe_5,normal,normal,kotu,200_300_m2,6_oda,alcak_1_3_kat,3_banyo_ve_ustu,yok,yok,yok,orta,orta,dusuk,yok,10_Milyon_TL_Ustu
Hatay,Arsuz,Satilik,0,3,Klima,bilinmiyor,yok,yok,yok,yok,yok,var,var,var,var,yok,yok,yok,yok,yok,yok,yok,yok,yok,yok,yok,yok,yok,yok,yok,yok,yok,yok,yok,var,yok,kademe_5,iyi,normal,bilinmiyor,100_125_m2,3_oda,orta_4_7_kat,2_banyo,yok,yok,yok,dusuk,yok,dusuk,yok,4_5_Milyon_TL_Arasi
Hatay,Iskenderun,Satilik,11_15_arasi,4,Kombi_Dogalgaz,bilinmiyor,yok,var,var,var,yok,var,var,yok,yok,yok,var,yok,yok,yok,yok,yok,yok,yok,yok,yok,yok,yok,yok,yok,yok,var,yok,yok,yok,yok,kademe_5,iyi,normal,bilinmiyor,125_150_m2,4_oda,orta_4_7_kat,1_banyo,yok,yok,yok,orta,orta,yuksek,yok,2_3_Milyon_TL_Arasi
Nigde,Merkez,Satilik,6_10_arasi,6,Merkezi,bilinmiyor,yok,var,var,var,yok,yok,yok,yok,yok,yok,yok,yok,yok,yok,yok,yok,yok,yok,yok,yok,yok,yok,yok,yok,yok,yok,yok,yok,yok,yok,kademe_5,iyi,normal,iyi,200_300_m2,4_oda,yuksek_8_15_kat,2_banyo,yok,yok,yok,dusuk,yok,yok,yok,5_7_Bucuk_Milyon_TL_Arasi
Kahramanmaras,Onikisubat,Satilik,0,4,Kombi_Dogalgaz,bilinmiyor,yok,var,var,var,yok,yok,var,var,yok,yok,var,yok,yok,var,yok,yok,yok,yok,yok,yok,yok,yok,yok,yok,yok,var,yok,yok,yok,yok,kademe_5,kotu,normal,bilinmiyor,0_50_m2,2_oda,orta_4_7_kat,1_banyo,dusuk,dusuk,yok,dusuk,orta,yuksek,yok,2_3_Milyon_TL_Arasi
Hatay,Arsuz,Satilik,26_30_arasi,bilinmiyor,Klima,bilinmiyor,yok,var,yok,yok,yok,var,var,var,var,yok,yok,yok,yok,yok,yok,yok,yok,yok,yok,yok,yok,yok,yok,yok,yok,yok,var,var,yok,yok,kademe_5,normal,normal,bilinmiyor,200_300_m2,4_oda,alcak_1_3_kat,1_banyo,yok,yok,yok,dusuk,yok,orta,yok,10_Milyon_TL_Ustu
Tokat,Merkez,Satilik,0,3,Kombi_Dogalgaz,bilinmiyor,yok,var,var,var,yok,yok,var,yok,var,yok,var,yok,yok,var,yok,yok,yok,yok,yok,yok,yok,yok,var,yok,yok,var,yok,yok,yok,yok,kademe_5,normal,bilinmiyor,bilinmiyor,0_50_m2,2_oda,orta_4_7_kat,1_banyo,yok,yok,yok,dusuk,orta,orta,yok,2_3_Milyon_TL_Arasi
Tokat,Merkez,Satilik,26_30_arasi,bilinmiyor,Kombi_Dogalgaz,bilinmiyor,yok,yok,yok,yok,yok,yok,yok,var,var,yok,yok,yok,yok,yok,yok,yok,yok,yok,yok,yok,yok,yok,yok,yok,yok,yok,yok,yok,yok,yok,kademe_5,bilinmiyor,bilinmiyor,bilinmiyor,150_200_m2,5_oda,alcak_1_3_kat,1_banyo,yok,yok,yok,dusuk,yok,yok,yok,4_5_Milyon_TL_Arasi
Hatay,Arsuz,Satilik,6_10_arasi,1,Gunes_Enerjisi,bilinmiyor,yok,var,var,var,yok,var,yok,var,yok,yok,var,yok,yok,yok,yok,yok,yok,yok,yok,yok,yok,yok,yok,yok,yok,yok,yok,yok,yok,yok,kademe_5,iyi,normal,bilinmiyor,75_100_m2,3_oda,orta_4_7_kat,1_banyo,yok,yok,dusuk,orta,dusuk,orta,yok,2_3_Milyon_TL_Arasi
Cankiri,Atkaracalar,Satilik,11_15_arasi,1,Kombi_Dogalgaz,bilinmiyor,yok,var,yok,yok,yok,yok,yok,var,yok,yok,yok,yok,yok,yok,yok,yok,yok,yok,yok,yok,yok,yok,yok,yok,yok,yok,yok,yok,yok,yok,kademe_5,normal,kotu,kotu,75_100_m2,2_oda,orta_4_7_kat,1_banyo,yok,yok,yok,dusuk,yok,yok,yok,2_3_Milyon_TL_Arasi
Hatay,Iskenderun,Satilik,11_15_arasi,4,Kombi_Dogalgaz,bilinmiyor,yok,var,var,var,yok,var,var,var,var,yok,var,yok,yok,yok,yok,yok,yok,yok,yok,yok,yok,var,var,yok,yok,var,var,yok,yok,yok,kademe_5,bilinmiyor,kotu,bilinmiyor,200_300_m2,4_oda,orta_4_7_kat,2_banyo,dusuk,dusuk,yok,orta,orta,yuksek,yok,5_7_Bucuk_Milyon_TL_Arasi
Tokat,Merkez,Satilik,0,4,Kombi,bilinmiyor,yok,var,var,var,yok,var,var,yok,yok,yok,var,yok,yok,var,yok,yok,yok,yok,yok,yok,yok,yok,yok,yok,yok,var,yok,yok,yok,yok,kademe_5,kotu,bilinmiyor,kotu,0_50_m2,2_oda,orta_4_7_kat,1_banyo,yok,yok,yok,yok,yuksek,orta,yok,2_3_Milyon_TL_Arasi
Kahramanmaras,Onikisubat,Satilik,26_30_arasi,bilinmiyor,Soba,bilinmiyor,yok,yok,yok,yok,yok,var,var,var,yok,yok,yok,yok,yok,yok,yok,yok,yok,yok,yok,yok,yok,yok,yok,yok,yok,var,yok,yok,yok,yok,kademe_5,bilinmiyor,normal,kotu,100_125_m2,3_oda,orta_4_7_kat,3_banyo_ve_ustu,yok,yok,yok,dusuk,yok,yok,yok,1_5_Milyon_TL_Alti
Nigde,Camardi,Satilik,26_30_arasi,bilinmiyor,Gunes_Enerjisi,bilinmiyor,yok,yok,yok,var,yok,var,var,var,var,yok,var,yok,yok,yok,yok,yok,yok,yok,yok,yok,yok,yok,var,var,yok,var,yok,yok,yok,yok,kademe_5,bilinmiyor,bilinmiyor,bilinmiyor,100_125_m2,3_oda,alcak_1_3_kat,1_banyo,yok,dusuk,yok,orta,orta,orta,yok,1_5_Milyon_TL_Alti
Bayburt,Merkez,Satilik,0,Bahce,Soba,bilinmiyor,yok,yok,yok,var,yok,yok,yok,var,yok,yok,yok,yok,yok,yok,yok,yok,yok,yok,yok,yok,yok,yok,var,yok,yok,yok,var,yok,yok,yok,kademe_5,bilinmiyor,normal,bilinmiyor,300_m2_ve_ustu,7_oda_ve_ustu,alcak_1_3_kat,2_banyo,yok,yok,yok,dusuk,yuksek,yok,yok,3_4_Milyon_TL_Arasi
Nigde,Bor,Satilik,0,Bahce,Yerden_Isitma,bilinmiyor,yok,var,yok,var,yok,var,var,var,var,yok,var,var,yok,var,yok,yok,yok,yok,var,yok,yok,yok,var,yok,yok,var,var,yok,yok,yok,kademe_5,iyi,bilinmiyor,bilinmiyor,200_300_m2,5_oda,alcak_1_3_kat,3_banyo_ve_ustu,yok,orta,yok,orta,yuksek,yuksek,yok,7_Bucuk_10_Milyon_TL_Arasi
Hatay,Iskenderun,Satilik,6_10_arasi,3,Kat_Kaloriferi,bilinmiyor,yok,var,yok,yok,yok,yok,yok,yok,yok,yok,yok,yok,yok,yok,yok,yok,yok,yok,yok,yok,yok,yok,yok,yok,yok,yok,yok,yok,yok,yok,kademe_5,normal,bilinmiyor,bilinmiyor,125_150_m2,4_oda,orta_4_7_kat,2_banyo,yok,yok,yok,dusuk,yok,yok,yok,4_5_Milyon_TL_Arasi
Hatay,Defne,Satilik,6_10_arasi,4,Gunes_Enerjisi,bilinmiyor,yok,var,var,var,yok,yok,yok,var,yok,yok,var,var,yok,var,var,yok,yok,yok,yok,yok,var,yok,var,yok,yok,var,var,yok,var,yok,kademe_5,bilinmiyor,bilinmiyor,bilinmiyor,300_m2_ve_ustu,6_oda,orta_4_7_kat,2_banyo,dusuk,orta,dusuk,orta,dusuk,yuksek,yok,7_Bucuk_10_Milyon_TL_Arasi
Hatay,Defne,Satilik,6_10_arasi,3,Yerden_Isitma,bilinmiyor,yok,var,var,var,yok,var,var,var,var,yok,var,var,yok,yok,yok,yok,yok,yok,yok,yok,yok,yok,yok,yok,yok,yok,yok,yok,yok,yok,kademe_5,iyi,iyi,iyi,150_200_m2,4_oda,orta_4_7_kat,1_banyo,yok,dusuk,dusuk,dusuk,yok,orta,yok,3_4_Milyon_TL_Arasi
Kahramanmaras,Onikisubat,Satilik,16_20_arasi,Bahce,Kombi,bilinmiyor,yok,var,yok,yok,yok,var,var,var,var,yok,yok,yok,yok,yok,yok,yok,yok,yok,yok,yok,yok,yok,yok,yok,yok,var,var,yok,yok,yok,kademe_5,kotu,bilinmiyor,kotu,200_300_m2,5_oda,bilinmiyor,2_banyo,yok,yok,yok,dusuk,yuksek,orta,yok,5_7_Bucuk_Milyon_TL_Arasi
Hatay,Iskenderun,Satilik,6_10_arasi,1,Klima,bilinmiyor,yok,var,yok,var,yok,var,var,var,var,yok,var,yok,yok,var,yok,yok,yok,yok,yok,yok,yok,yok,var,yok,yok,var,yok,yok,yok,yok,kademe_5,normal,bilinmiyor,bilinmiyor,150_200_m2,3_oda,orta_4_7_kat,1_banyo,yok,yok,dusuk,orta,orta,yuksek,yok,3_4_Milyon_TL_Arasi
Hatay,Antakya,Satilik,6_10_arasi,Yuksek_Giris,Kombi,bilinmiyor,yok,var,var,var,yok,var,yok,var,yok,yok,var,yok,yok,yok,yok,yok,yok,yok,yok,yok,yok,yok,yok,yok,yok,yok,yok,yok,yok,yok,kademe_5,normal,normal,iyi,150_200_m2,4_oda,orta_4_7_kat,2_banyo,yok,yok,dusuk,orta,yuksek,orta,yok,2_3_Milyon_TL_Arasi
Hatay,Belen,Satilik,21_25_arasi,En_Ust_Kat,Klima,bilinmiyor,yok,var,yok,yok,var,var,yok,var,var,yok,yok,yok,yok,yok,yok,yok,yok,yok,yok,yok,yok,yok,yok,yok,yok,yok,yok,yok,yok,yok,kademe_5,kotu,bilinmiyor,bilinmiyor,100_125_m2,3_oda,orta_4_7_kat,1_banyo,yok,yok,yok,dusuk,yok,dusuk,yok,2_3_Milyon_TL_Arasi
Hatay,Arsuz,Satilik,16_20_arasi,2,Klima,bilinmiyor,yok,var,yok,yok,yok,var,var,yok,var,yok,var,yok,yok,var,yok,yok,yok,yok,var,yok,yok,var,var,yok,yok,yok,yok,yok,yok,yok,kademe_5,kotu,kotu,bilinmiyor,100_125_m2,3_oda,alcak_1_3_kat,1_banyo,yok,dusuk,yok,dusuk,dusuk,yuksek,yok,5_7_Bucuk_Milyon_TL_Arasi
Osmaniye,Merkez,Satilik,21_25_arasi,2,Kombi,bilinmiyor,yok,var,var,var,yok,yok,yok,yok,yok,yok,yok,yok,yok,yok,yok,yok,yok,yok,yok,yok,yok,yok,yok,yok,yok,yok,yok,yok,yok,yok,kademe_5,iyi,kotu,kotu,150_200_m2,4_oda,yuksek_8_15_kat,1_banyo,yok,yok,yok,dusuk,yok,yok,yok,2_3_Milyon_TL_Arasi
Hatay,Iskenderun,Satilik,11_15_arasi,Ara_Kat,Kombi_Dogalgaz,bilinmiyor,yok,var,var,var,yok,var,var,var,var,yok,var,yok,yok,yok,yok,yok,yok,yok,yok,yok,yok,var,var,yok,yok,var,yok,yok,yok,yok,kademe_5,kotu,kotu,bilinmiyor,150_200_m2,4_oda,orta_4_7_kat,1_banyo,yok,dusuk,yok,orta,yok,yuksek,yok,5_7_Bucuk_Milyon_TL_Arasi
Yozgat,Merkez,Satilik,21_25_arasi,4,Kombi,bilinmiyor,yok,var,yok,var,yok,var,yok,yok,var,yok,var,yok,yok,yok,yok,yok,yok,yok,yok,yok,yok,yok,yok,yok,yok,yok,yok,yok,yok,yok,kademe_5,bilinmiyor,normal,normal,125_150_m2,4_oda,orta_4_7_kat,1_banyo,yok,yok,yok,dusuk,yok,dusuk,yok,2_3_Milyon_TL_Arasi
Hatay,Antakya,Satilik,1_5_arasi,Bahce,isitma_yok,bilinmiyor,yok,yok,yok,var,yok,yok,yok,yok,yok,yok,yok,yok,yok,yok,yok,yok,yok,yok,yok,yok,yok,yok,yok,yok,yok,yok,yok,yok,yok,yok,kademe_5,iyi,iyi,bilinmiyor,200_300_m2,5_oda,alcak_1_3_kat,3_banyo_ve_ustu,yok,yok,yok,dusuk,yok,yok,yok,10_Milyon_TL_Ustu
Hatay,Dortyol,Satilik,11_15_arasi,2,Kombi_Dogalgaz,bilinmiyor,yok,var,var,yok,yok,var,var,yok,yok,yok,var,yok,yok,yok,yok,yok,yok,yok,yok,yok,yok,yok,var,yok,yok,var,yok,yok,yok,yok,kademe_5,iyi,normal,kotu,125_150_m2,4_oda,orta_4_7_kat,1_banyo,dusuk,yok,yok,dusuk,dusuk,yuksek,yok,2_3_Milyon_TL_Arasi
Tokat,Merkez,Satilik,0,Yuksek_Giris,Kombi,bilinmiyor,yok,var,var,var,yok,yok,yok,yok,yok,yok,yok,yok,yok,yok,yok,yok,yok,yok,yok,yok,yok,yok,yok,yok,yok,yok,yok,yok,yok,yok,kademe_5,bilinmiyor,iyi,iyi,150_200_m2,5_oda,orta_4_7_kat,2_banyo,yok,yok,yok,dusuk,yok,yok,yok,5_7_Bucuk_Milyon_TL_Arasi
Hatay,Iskenderun,Satilik,21_25_arasi,2,Kombi_Dogalgaz,bilinmiyor,yok,var,var,var,yok,var,var,var,yok,yok,var,yok,yok,yok,yok,yok,yok,yok,yok,yok,yok,var,var,yok,yok,var,yok,yok,yok,yok,kademe_5,normal,bilinmiyor,bilinmiyor,200_300_m2,4_oda,orta_4_7_kat,1_banyo,dusuk,yok,yok,orta,orta,yuksek,yok,4_5_Milyon_TL_Arasi
Tokat,Merkez,Satilik,6_10_arasi,5,Kombi,bilinmiyor,yok,var,var,var,yok,yok,var,var,yok,yok,var,var,yok,var,yok,yok,yok,yok,var,yok,yok,yok,yok,yok,yok,var,yok,yok,yok,yok,kademe_5,normal,normal,bilinmiyor,150_200_m2,4_oda,yuksek_8_15_kat,2_banyo,dusuk,dusuk,dusuk,yok,orta,yuksek,yok,7_Bucuk_10_Milyon_TL_Arasi
Kahramanmaras,Onikisubat,Satilik,1_5_arasi,9,Kombi_Dogalgaz,bilinmiyor,yok,var,var,var,yok,var,yok,yok,var,yok,var,yok,yok,var,yok,yok,yok,yok,yok,yok,yok,yok,var,var,yok,yok,yok,yok,yok,yok,kademe_5,iyi,iyi,iyi,75_100_m2,3_oda,yuksek_8_15_kat,1_banyo,dusuk,dusuk,yok,dusuk,yok,yuksek,yok,3_4_Milyon_TL_Arasi
Hatay,Iskenderun,Satilik,21_25_arasi,Zemin,Kombi_Dogalgaz,bilinmiyor,yok,var,yok,yok,yok,yok,yok,yok,yok,yok,yok,yok,yok,yok,yok,yok,yok,yok,yok,yok,yok,yok,yok,yok,yok,yok,yok,yok,yok,yok,kademe_5,normal,kotu,bilinmiyor,125_150_m2,4_oda,orta_4_7_kat,1_banyo,yok,yok,yok,dusuk,dusuk,orta,yok,2_3_Milyon_TL_Arasi
Hatay,Arsuz,Satilik,1_5_arasi,4,Klima,bilinmiyor,yok,var,var,var,yok,yok,var,yok,yok,yok,yok,yok,yok,yok,yok,yok,yok,yok,yok,yok,yok,yok,yok,yok,yok,var,yok,yok,yok,yok,kademe_5,normal,normal,kotu,100_125_m2,3_oda,orta_4_7_kat,1_banyo,yok,yok,yok,dusuk,dusuk,orta,yok,3_4_Milyon_TL_Arasi
Hatay,Defne,Satilik,6_10_arasi,5,Kombi,bilinmiyor,yok,var,var,var,yok,yok,var,var,yok,yok,var,yok,yok,yok,yok,yok,yok,yok,yok,yok,yok,yok,yok,yok,yok,var,var,yok,yok,yok,kademe_5,iyi,normal,bilinmiyor,200_300_m2,4_oda,orta_4_7_kat,2_banyo,yok,dusuk,dusuk,dusuk,dusuk,dusuk,yok,3_4_Milyon_TL_Arasi
Nigde,Bor,Satilik,11_15_arasi,Zemin,Kombi,bilinmiyor,yok,var,yok,var,yok,var,var,var,var,yok,var,yok,yok,yok,yok,yok,yok,yok,yok,yok,yok,yok,var,yok,yok,var,yok,var,yok,yok,kademe_5,normal,kotu,bilinmiyor,150_200_m2,4_oda,orta_4_7_kat,1_banyo,yok,yok,yok,orta,yuksek,yuksek,yok,7_Bucuk_10_Milyon_TL_Arasi
Bartin,Merkez,Satilik,6_10_arasi,1,Kombi,bilinmiyor,yok,var,var,var,yok,var,var,var,yok,yok,var,yok,yok,var,yok,yok,yok,yok,yok,yok,yok,yok,yok,yok,yok,var,yok,yok,yok,yok,kademe_5,bilinmiyor,bilinmiyor,bilinmiyor,100_125_m2,3_oda,orta_4_7_kat,1_banyo,yok,yok,yok,orta,yuksek,yuksek,yok,4_5_Milyon_TL_Arasi
Tokat,Niksar,Satilik,6_10_arasi,bilinmiyor,Kombi_Dogalgaz,bilinmiyor,yok,yok,yok,var,yok,yok,yok,yok,yok,yok,yok,yok,yok,yok,yok,yok,yok,yok,yok,yok,yok,yok,yok,yok,yok,yok,yok,yok,yok,yok,kademe_5,kotu,normal,bilinmiyor,300_m2_ve_ustu,7_oda_ve_ustu,orta_4_7_kat,3_banyo_ve_ustu,yok,yok,yok,dusuk,yok,yok,yok,7_Bucuk_10_Milyon_TL_Arasi
Hatay,Antakya,Satilik,6_10_arasi,5,Kombi,bilinmiyor,yok,var,var,var,yok,yok,yok,yok,yok,yok,yok,yok,yok,yok,yok,yok,yok,yok,yok,yok,yok,yok,yok,yok,yok,yok,yok,yok,yok,yok,kademe_5,kotu,kotu,bilinmiyor,300_m2_ve_ustu,7_oda_ve_ustu,orta_4_7_kat,2_banyo,yok,yok,yok,orta,orta,yok,yok,4_5_Milyon_TL_Arasi
Kahramanmaras,Onikisubat,Satilik,1_5_arasi,11,Merkezi,bilinmiyor,yok,var,var,var,yok,var,var,var,var,yok,var,yok,yok,yok,yok,yok,yok,yok,var,yok,yok,yok,yok,yok,yok,yok,yok,yok,yok,yok,kademe_5,normal,kotu,bilinmiyor,300_m2_ve_ustu,6_oda,yuksek_8_15_kat,2_banyo,dusuk,yok,yok,dusuk,dusuk,dusuk,yok,5_7_Bucuk_Milyon_TL_Arasi
Hatay,Antakya,Satilik,11_15_arasi,bilinmiyor,Soba,bilinmiyor,yok,yok,yok,yok,yok,yok,yok,yok,yok,yok,yok,yok,yok,yok,yok,yok,yok,yok,yok,yok,yok,yok,yok,yok,yok,yok,yok,yok,yok,yok,kademe_5,bilinmiyor,bilinmiyor,bilinmiyor,300_m2_ve_ustu,7_oda_ve_ustu,alcak_1_3_kat,3_banyo_ve_ustu,yok,yok,yok,dusuk,yok,yok,yok,4_5_Milyon_TL_Arasi
Hatay,Antakya,Satilik,6_10_arasi,Yuksek_Giris,Kombi,bilinmiyor,yok,yok,yok,yok,yok,yok,yok,yok,yok,yok,yok,yok,yok,yok,yok,yok,yok,yok,yok,yok,yok,yok,yok,yok,yok,yok,yok,yok,yok,yok,kademe_5,bilinmiyor,bilinmiyor,bilinmiyor,125_150_m2,4_oda,orta_4_7_kat,1_banyo,yok,yok,yok,dusuk,yok,yok,yok,1_5_2_Milyon_TL_Arasi
Hatay,Iskenderun,Satilik,11_15_arasi,Yuksek_Giris,Gunes_Enerjisi,bilinmiyor,yok,var,var,var,yok,var,var,var,yok,yok,yok,yok,yok,yok,yok,yok,yok,yok,yok,yok,yok,yok,yok,yok,yok,yok,yok,yok,yok,yok,kademe_5,bilinmiyor,iyi,iyi,75_100_m2,3_oda,orta_4_7_kat,1_banyo,yok,yok,yok,dusuk,yok,yok,yok,3_4_Milyon_TL_Arasi
Kahramanmaras,Onikisubat,Satilik,6_10_arasi,10,Merkezi,bilinmiyor,yok,var,yok,var,yok,yok,var,var,yok,yok,yok,yok,yok,yok,yok,yok,yok,yok,yok,yok,yok,yok,yok,yok,yok,yok,yok,yok,yok,yok,kademe_5,normal,bilinmiyor,bilinmiyor,150_200_m2,5_oda,yuksek_8_15_kat,2_banyo,yok,yok,yok,dusuk,yok,yok,yok,4_5_Milyon_TL_Arasi
Tokat,Niksar,Satilik,1_5_arasi,1,Kombi_Dogalgaz,bilinmiyor,yok,var,var,var,yok,yok,yok,var,var,yok,var,var,yok,yok,yok,yok,yok,yok,yok,yok,yok,yok,yok,yok,yok,var,yok,yok,yok,yok,kademe_5,normal,bilinmiyor,kotu,125_150_m2,4_oda,orta_4_7_kat,2_banyo,yok,yok,yok,dusuk,yok,dusuk,yok,4_5_Milyon_TL_Arasi
Hatay,Antakya,Satilik,1_5_arasi,2,Klima,bilinmiyor,yok,var,yok,yok,var,yok,yok,yok,yok,yok,yok,yok,yok,yok,yok,yok,yok,yok,yok,yok,yok,yok,yok,yok,yok,yok,yok,yok,yok,yok,kademe_5,normal,iyi,kotu,50_75_m2,2_oda,orta_4_7_kat,1_banyo,yok,yok,yok,dusuk,yok,dusuk,yok,1_5_2_Milyon_TL_Arasi
Bartin,Merkez,Satilik,6_10_arasi,1,Kombi,bilinmiyor,yok,var,var,var,yok,yok,yok,yok,var,yok,yok,yok,yok,var,yok,yok,yok,yok,yok,yok,yok,yok,yok,yok,yok,var,yok,yok,yok,yok,kademe_5,kotu,kotu,normal,50_75_m2,2_oda,orta_4_7_kat,1_banyo,yok,yok,yok,dusuk,orta,dusuk,yok,3_4_Milyon_TL_Arasi
Nigde,Merkez,Satilik,26_30_arasi,2,Kombi,bilinmiyor,yok,var,var,var,yok,yok,var,yok,yok,yok,var,yok,yok,var,yok,yok,yok,yok,yok,yok,yok,yok,yok,yok,yok,var,yok,yok,yok,yok,kademe_5,kotu,kotu,kotu,125_150_m2,4_oda,orta_4_7_kat,1_banyo,yok,yok,dusuk,orta,yuksek,dusuk,yok,3_4_Milyon_TL_Arasi
Hatay,Iskenderun,Satilik,1_5_arasi,Ara_Kat,isitma_yok_dogalgaz,bilinmiyor,yok,yok,yok,yok,yok,yok,var,yok,var,yok,var,yok,yok,yok,yok,yok,yok,yok,yok,yok,yok,var,yok,yok,yok,var,var,yok,yok,yok,kademe_5,normal,bilinmiyor,kotu,150_200_m2,4_oda,orta_4_7_kat,1_banyo,dusuk,dusuk,yok,dusuk,orta,orta,yok,10_Milyon_TL_Ustu
Hatay,Belen,Satilik,21_25_arasi,Bahce,Kat_Kaloriferi,bilinmiyor,yok,var,yok,var,yok,yok,yok,yok,yok,yok,yok,yok,yok,yok,yok,yok,yok,yok,yok,yok,yok,yok,yok,yok,yok,yok,yok,yok,yok,yok,kademe_5,bilinmiyor,bilinmiyor,bilinmiyor,300_m2_ve_ustu,6_oda,bilinmiyor,1_banyo,yok,yok,yok,dusuk,yok,yok,yok,5_7_Bucuk_Milyon_TL_Arasi
Tokat,Merkez,Satilik,6_10_arasi,4,Kombi,bilinmiyor,yok,var,var,var,yok,var,yok,var,var,yok,var,var,yok,var,yok,yok,yok,yok,yok,yok,yok,yok,yok,yok,yok,var,yok,yok,yok,yok,kademe_5,normal,bilinmiyor,bilinmiyor,300_m2_ve_ustu,7_oda_ve_ustu,orta_4_7_kat,3_banyo_ve_ustu,dusuk,orta,dusuk,dusuk,orta,yuksek,yok,10_Milyon_TL_Ustu
Hatay,Arsuz,Satilik,11_15_arasi,Villa_Kati,Klima,bilinmiyor,yok,var,yok,var,yok,var,var,var,var,yok,var,yok,yok,var,yok,yok,yok,yok,yok,yok,yok,var,var,yok,yok,var,var,yok,yok,yok,kademe_5,bilinmiyor,bilinmiyor,bilinmiyor,200_300_m2,4_oda,alcak_1_3_kat,2_banyo,dusuk,dusuk,orta,orta,orta,yuksek,orta,7_Bucuk_10_Milyon_TL_Arasi
Tokat,Niksar,Satilik,1_5_arasi,4,Kombi,bilinmiyor,yok,yok,var,var,yok,yok,yok,yok,yok,yok,var,yok,yok,yok,yok,yok,yok,yok,yok,yok,yok,yok,var,yok,yok,var,yok,yok,yok,yok,kademe_5,normal,normal,normal,50_75_m2,2_oda,orta_4_7_kat,1_banyo,yok,yok,yok,dusuk,yok,yuksek,yok,2_3_Milyon_TL_Arasi
Hatay,Payas,Satilik,11_15_arasi,2,Klima,bilinmiyor,yok,var,yok,var,yok,yok,yok,yok,var,yok,yok,yok,yok,yok,yok,yok,yok,var,yok,yok,yok,yok,yok,yok,yok,yok,yok,yok,yok,yok,kademe_5,normal,normal,kotu,150_200_m2,4_oda,orta_4_7_kat,1_banyo,dusuk,yok,yok,dusuk,yok,orta,yok,2_3_Milyon_TL_Arasi
Bartin,Merkez,Satilik,16_20_arasi,3,Kombi,bilinmiyor,yok,var,var,var,yok,var,yok,var,yok,yok,yok,yok,yok,var,yok,yok,yok,yok,yok,yok,yok,yok,yok,yok,yok,var,yok,yok,yok,yok,kademe_5,normal,normal,normal,100_125_m2,3_oda,orta_4_7_kat,1_banyo,yok,yok,dusuk,dusuk,yuksek,dusuk,yok,3_4_Milyon_TL_Arasi
Hatay,Iskenderun,Satilik,1_5_arasi,13,Kombi,bilinmiyor,yok,var,var,var,yok,yok,var,yok,yok,yok,var,var,yok,var,yok,yok,yok,yok,var,yok,yok,yok,yok,yok,yok,var,yok,yok,yok,yok,kademe_5,iyi,normal,bilinmiyor,200_300_m2,5_oda,yuksek_8_15_kat,2_banyo,dusuk,dusuk,dusuk,dusuk,orta,yuksek,yok,5_7_Bucuk_Milyon_TL_Arasi
Erzurum,Palandoken,Satilik,6_10_arasi,2,Merkezi,bilinmiyor,yok,var,var,var,yok,var,yok,var,yok,yok,var,var,yok,var,yok,yok,yok,yok,yok,yok,yok,yok,var,yok,yok,var,yok,yok,yok,yok,kademe_5,normal,iyi,kotu,125_150_m2,4_oda,yuksek_8_15_kat,2_banyo,dusuk,yok,dusuk,orta,yuksek,yuksek,yok,3_4_Milyon_TL_Arasi
Hatay,Arsuz,Satilik,26_30_arasi,bilinmiyor,Kombi_Dogalgaz,bilinmiyor,yok,var,yok,var,yok,var,yok,var,var,yok,var,yok,yok,yok,yok,yok,yok,yok,var,yok,yok,var,yok,yok,yok,yok,var,var,yok,yok,kademe_5,bilinmiyor,normal,bilinmiyor,200_300_m2,5_oda,alcak_1_3_kat,1_banyo,yok,dusuk,dusuk,dusuk,dusuk,orta,yok,10_Milyon_TL_Ustu
Hatay,Arsuz,Satilik,6_10_arasi,Ara_Kat,Klima,bilinmiyor,yok,var,var,var,var,var,yok,yok,yok,yok,yok,var,yok,yok,yok,yok,yok,yok,yok,yok,yok,var,var,yok,yok,var,var,yok,yok,yok,kademe_5,kotu,bilinmiyor,bilinmiyor,100_125_m2,3_oda,orta_4_7_kat,2_banyo,yok,yok,yok,orta,orta,orta,yok,5_7_Bucuk_Milyon_TL_Arasi
Hatay,Arsuz,Satilik,11_15_arasi,En_Ust_Kat,Kombi_Dogalgaz,bilinmiyor,yok,var,yok,yok,yok,yok,var,var,yok,yok,yok,yok,yok,yok,yok,yok,yok,yok,yok,yok,yok,yok,yok,yok,yok,var,var,yok,var,yok,kademe_5,iyi,normal,iyi,200_300_m2,7_oda_ve_ustu,orta_4_7_kat,2_banyo,yok,dusuk,yok,dusuk,yok,yok,yok,4_5_Milyon_TL_Arasi
Tokat,Niksar,Satilik,0,5,Kombi_Dogalgaz,bilinmiyor,yok,var,var,var,yok,yok,yok,var,yok,yok,var,yok,yok,var,yok,yok,yok,yok,yok,yok,yok,yok,yok,yok,yok,yok,yok,yok,yok,yok,kademe_5,iyi,iyi,kotu,100_125_m2,3_oda,orta_4_7_kat,1_banyo,yok,yok,yok,dusuk,orta,orta,yok,4_5_Milyon_TL_Arasi
Kahramanmaras,Onikisubat,Satilik,1_5_arasi,5,Kombi,bilinmiyor,yok,var,yok,var,yok,var,yok,yok,var,yok,var,yok,yok,yok,yok,yok,yok,yok,yok,yok,yok,yok,yok,yok,yok,yok,yok,yok,yok,yok,kademe_5,normal,normal,normal,100_125_m2,3_oda,yuksek_8_15_kat,1_banyo,yok,yok,yok,dusuk,orta,orta,yok,3_4_Milyon_TL_Arasi
Hatay,Antakya,Satilik,6_10_arasi,bilinmiyor,Kat_Kaloriferi,bilinmiyor,yok,var,yok,var,yok,yok,yok,yok,yok,yok,yok,yok,yok,yok,yok,yok,yok,yok,yok,yok,yok,yok,yok,yok,yok,yok,yok,yok,yok,yok,kademe_5,bilinmiyor,bilinmiyor,bilinmiyor,300_m2_ve_ustu,3_oda,orta_4_7_kat,2_banyo,yok,yok,yok,dusuk,yok,yok,yok,10_Milyon_TL_Ustu
Tokat,Merkez,Satilik,0,3,Kombi,bilinmiyor,yok,var,var,var,yok,yok,yok,var,yok,yok,var,yok,yok,var,yok,yok,yok,yok,yok,yok,yok,yok,yok,yok,yok,var,yok,yok,yok,yok,kademe_5,iyi,normal,bilinmiyor,75_100_m2,2_oda,orta_4_7_kat,1_banyo,yok,yok,dusuk,yok,orta,yuksek,yok,3_4_Milyon_TL_Arasi
Erzurum,Tortum,Satilik,6_10_arasi,Bodrum,Kombi,bilinmiyor,yok,yok,yok,yok,yok,yok,yok,yok,yok,yok,yok,yok,yok,yok,yok,yok,yok,yok,yok,yok,yok,yok,yok,yok,yok,yok,yok,yok,yok,yok,kademe_5,bilinmiyor,bilinmiyor,bilinmiyor,125_150_m2,4_oda,yuksek_8_15_kat,1_banyo,yok,yok,yok,dusuk,yok,yok,yok,1_5_2_Milyon_TL_Arasi
Hatay,Iskenderun,Satilik,16_20_arasi,4,Klima,bilinmiyor,yok,var,var,var,yok,var,yok,var,var,yok,var,yok,yok,var,yok,yok,yok,yok,yok,yok,yok,yok,yok,yok,yok,var,yok,yok,yok,yok,kademe_5,kotu,bilinmiyor,kotu,125_150_m2,4_oda,orta_4_7_kat,1_banyo,yok,yok,dusuk,dusuk,yuksek,yuksek,yok,2_3_Milyon_TL_Arasi
Hatay,Defne,Satilik,11_15_arasi,Bahce,Kombi,bilinmiyor,yok,var,var,var,yok,var,var,var,yok,yok,var,yok,yok,yok,yok,yok,yok,yok,yok,yok,yok,yok,yok,yok,yok,yok,yok,yok,yok,yok,kademe_5,normal,normal,bilinmiyor,100_125_m2,4_oda,orta_4_7_kat,2_banyo,yok,yok,yok,dusuk,yok,yok,yok,2_3_Milyon_TL_Arasi
Tokat,Merkez,Satilik,21_25_arasi,4,Kombi_Dogalgaz,bilinmiyor,yok,var,var,var,yok,yok,var,var,yok,yok,var,yok,yok,yok,yok,yok,yok,yok,yok,yok,yok,yok,var,yok,yok,var,yok,yok,yok,yok,kademe_5,bilinmiyor,kotu,bilinmiyor,100_125_m2,3_oda,orta_4_7_kat,1_banyo,yok,yok,yok,dusuk,dusuk,orta,yok,3_4_Milyon_TL_Arasi
Tokat,Merkez,Satilik,0,5,Kombi_Dogalgaz,bilinmiyor,yok,var,var,var,yok,var,var,var,var,yok,var,yok,yok,yok,yok,yok,yok,yok,yok,yok,yok,yok,yok,yok,yok,var,yok,yok,yok,yok,kademe_5,iyi,iyi,bilinmiyor,125_150_m2,4_oda,orta_4_7_kat,1_banyo,yok,yok,yok,dusuk,yok,dusuk,yok,4_5_Milyon_TL_Arasi
Yozgat,Merkez,Satilik,1_5_arasi,3,Kombi_Dogalgaz,bilinmiyor,yok,yok,yok,yok,var,var,var,var,yok,yok,yok,yok,yok,yok,yok,yok,yok,yok,yok,yok,yok,yok,yok,yok,yok,yok,yok,yok,yok,yok,kademe_5,iyi,bilinmiyor,bilinmiyor,50_75_m2,2_oda,orta_4_7_kat,1_banyo,yok,yok,yok,yok,yok,yok,yok,2_3_Milyon_TL_Arasi
Hatay,Antakya,Satilik,0,2,Kombi_Dogalgaz,bilinmiyor,yok,var,var,yok,yok,var,var,var,var,yok,var,yok,yok,var,yok,yok,yok,yok,yok,yok,yok,yok,yok,yok,yok,var,yok,yok,yok,yok,kademe_5,iyi,normal,bilinmiyor,100_125_m2,3_oda,orta_4_7_kat,1_banyo,yok,dusuk,yok,dusuk,orta,yuksek,yok,3_4_Milyon_TL_Arasi
Hatay,Payas,Satilik,1_5_arasi,2,Klima,bilinmiyor,yok,var,var,var,yok,yok,yok,var,yok,yok,yok,yok,yok,yok,yok,yok,yok,yok,yok,yok,yok,yok,var,yok,yok,var,yok,yok,yok,yok,kademe_5,iyi,normal,bilinmiyor,100_125_m2,3_oda,orta_4_7_kat,1_banyo,yok,dusuk,dusuk,dusuk,orta,yuksek,yok,2_3_Milyon_TL_Arasi
Tokat,Merkez,Satilik,1_5_arasi,5,Yerden_Isitma,bilinmiyor,yok,var,var,var,yok,var,yok,var,var,yok,var,var,yok,var,yok,yok,yok,yok,yok,yok,yok,yok,yok,yok,yok,var,yok,yok,yok,yok,kademe_5,iyi,normal,bilinmiyor,150_200_m2,5_oda,orta_4_7_kat,2_banyo,yok,yok,yok,yok,dusuk,yuksek,yok,7_Bucuk_10_Milyon_TL_Arasi
Hatay,Arsuz,Satilik,0,3,Kombi_Dogalgaz,bilinmiyor,yok,var,var,var,yok,var,var,var,var,yok,var,var,yok,yok,yok,yok,yok,var,yok,yok,var,var,var,yok,yok,var,yok,yok,yok,yok,kademe_5,bilinmiyor,bilinmiyor,bilinmiyor,125_150_m2,4_oda,orta_4_7_kat,2_banyo,dusuk,dusuk,yok,orta,yuksek,orta,yok,4_5_Milyon_TL_Arasi
Tokat,Merkez,Satilik,1_5_arasi,4,Kombi_Dogalgaz,bilinmiyor,yok,var,var,var,var,yok,yok,var,var,yok,var,yok,yok,var,yok,yok,yok,yok,yok,yok,yok,yok,yok,yok,yok,var,var,yok,yok,yok,kademe_5,iyi,iyi,bilinmiyor,75_100_m2,3_oda,orta_4_7_kat,1_banyo,dusuk,yok,yok,dusuk,yok,yuksek,yok,3_4_Milyon_TL_Arasi
Nigde,Bor,Satilik,16_20_arasi,6,Merkezi,bilinmiyor,yok,var,var,var,var,var,yok,var,yok,yok,var,yok,yok,yok,yok,yok,yok,yok,yok,yok,yok,yok,yok,yok,yok,var,yok,yok,yok,yok,kademe_5,bilinmiyor,normal,bilinmiyor,150_200_m2,4_oda,yuksek_8_15_kat,1_banyo,yok,yok,yok,yok,orta,yuksek,yok,4_5_Milyon_TL_Arasi
Hatay,Iskenderun,Satilik,6_10_arasi,1,Kombi_Dogalgaz,bilinmiyor,yok,var,var,var,yok,var,yok,var,var,yok,var,var,yok,var,yok,yok,yok,yok,yok,yok,yok,yok,yok,yok,yok,var,yok,yok,yok,yok,kademe_5,iyi,bilinmiyor,kotu,125_150_m2,4_oda,orta_4_7_kat,3_banyo_ve_ustu,dusuk,dusuk,dusuk,orta,yuksek,yuksek,yok,3_4_Milyon_TL_Arasi
Erzurum,Yakutiye,Satilik,1_5_arasi,5,Merkezi,bilinmiyor,yok,var,var,var,yok,yok,yok,var,yok,yok,var,var,yok,var,yok,yok,yok,yok,yok,yok,yok,yok,yok,yok,yok,yok,yok,yok,yok,yok,kademe_5,normal,iyi,bilinmiyor,125_150_m2,4_oda,yuksek_8_15_kat,2_banyo,dusuk,yok,dusuk,dusuk,yok,yuksek,yok,4_5_Milyon_TL_Arasi
Hatay,Antakya,Satilik,11_15_arasi,Kot_1,Kombi_Dogalgaz,bilinmiyor,yok,var,var,yok,yok,yok,var,var,var,yok,var,yok,yok,var,yok,yok,yok,yok,yok,yok,yok,yok,var,yok,yok,var,yok,yok,yok,yok,kademe_5,normal,bilinmiyor,bilinmiyor,125_150_m2,4_oda,orta_4_7_kat,1_banyo,yok,yok,yok,orta,orta,yuksek,yok,2_3_Milyon_TL_Arasi
Tokat,Merkez,Satilik,1_5_arasi,3,Kombi,bilinmiyor,yok,var,var,var,var,var,var,var,yok,yok,yok,yok,yok,yok,yok,yok,yok,yok,yok,yok,yok,yok,yok,yok,yok,yok,yok,yok,yok,yok,kademe_5,normal,normal,iyi,50_75_m2,2_oda,orta_4_7_kat,1_banyo,yok,yok,yok,dusuk,yok,yok,yok,1_5_Milyon_TL_Alti
Hatay,Dortyol,Satilik,6_10_arasi,5,Kombi,bilinmiyor,yok,var,yok,var,yok,yok,var,var,yok,yok,var,yok,yok,var,yok,yok,yok,yok,yok,yok,yok,yok,yok,yok,yok,yok,yok,yok,yok,yok,kademe_5,normal,normal,normal,300_m2_ve_ustu,7_oda_ve_ustu,orta_4_7_kat,3_banyo_ve_ustu,yok,yok,yok,dusuk,orta,yuksek,yok,10_Milyon_TL_Ustu
Hatay,Antakya,Satilik,1_5_arasi,3,Klima,bilinmiyor,yok,var,yok,yok,var,yok,yok,var,yok,yok,yok,yok,yok,yok,yok,yok,yok,yok,yok,yok,yok,yok,yok,yok,yok,yok,yok,yok,yok,yok,kademe_5,normal,normal,normal,50_75_m2,3_oda,orta_4_7_kat,1_banyo,yok,yok,yok,dusuk,yok,dusuk,yok,1_5_2_Milyon_TL_Arasi
Bartin,Amasra,Satilik,11_15_arasi,3,Kombi,bilinmiyor,yok,var,var,var,yok,yok,yok,yok,yok,yok,yok,yok,yok,yok,yok,yok,yok,yok,yok,yok,yok,yok,yok,yok,yok,yok,yok,yok,yok,yok,kademe_5,normal,normal,bilinmiyor,50_75_m2,2_oda,orta_4_7_kat,1_banyo,yok,yok,yok,yok,yok,yok,yok,4_5_Milyon_TL_Arasi
Tokat,Merkez,Satilik,0,3,Merkezi,bilinmiyor,yok,var,var,var,yok,yok,var,yok,yok,yok,var,yok,yok,var,yok,yok,yok,yok,yok,yok,yok,yok,yok,yok,yok,var,var,yok,yok,yok,kademe_5,bilinmiyor,bilinmiyor,bilinmiyor,50_75_m2,2_oda,orta_4_7_kat,1_banyo,dusuk,yok,yok,dusuk,orta,yuksek,yok,3_4_Milyon_TL_Arasi
Hatay,Iskenderun,Satilik,31_ve_uzeri,bilinmiyor,Soba,bilinmiyor,yok,var,yok,yok,yok,var,var,var,var,yok,var,yok,yok,yok,yok,yok,yok,yok,yok,yok,yok,var,var,yok,yok,var,yok,yok,yok,yok,kademe_5,bilinmiyor,bilinmiyor,bilinmiyor,100_125_m2,2_oda,alcak_1_3_kat,1_banyo,yok,dusuk,yok,dusuk,yok,yok,yok,1_5_Milyon_TL_Alti
Hatay,Iskenderun,Satilik,0,3,Klima,bilinmiyor,yok,var,yok,var,yok,var,var,yok,yok,yok,yok,yok,yok,yok,yok,yok,yok,yok,yok,yok,yok,yok,yok,yok,yok,yok,yok,yok,yok,yok,kademe_5,normal,normal,iyi,0_50_m2,2_oda,orta_4_7_kat,1_banyo,yok,yok,yok,dusuk,yok,dusuk,yok,2_3_Milyon_TL_Arasi
Hatay,Iskenderun,Satilik,1_5_arasi,3,isitma_yok,bilinmiyor,yok,var,yok,yok,yok,yok,yok,yok,yok,yok,yok,yok,yok,yok,yok,yok,yok,yok,yok,yok,yok,yok,yok,yok,yok,yok,yok,yok,yok,yok,kademe_5,iyi,kotu,iyi,125_150_m2,4_oda,orta_4_7_kat,2_banyo,yok,yok,yok,dusuk,yok,yok,yok,7_Bucuk_10_Milyon_TL_Arasi
Tokat,Merkez,Satilik,1_5_arasi,4,Kombi,bilinmiyor,yok,yok,var,var,var,var,yok,yok,yok,yok,var,yok,yok,var,yok,yok,yok,yok,yok,yok,yok,yok,yok,yok,yok,yok,yok,yok,yok,yok,kademe_5,normal,normal,bilinmiyor,75_100_m2,2_oda,orta_4_7_kat,1_banyo,yok,yok,yok,yok,orta,yuksek,yok,4_5_Milyon_TL_Arasi
Hatay,Arsuz,Satilik,0,Zemin,Klima,bilinmiyor,yok,var,yok,var,yok,yok,yok,yok,yok,yok,yok,yok,yok,yok,yok,yok,yok,yok,yok,yok,yok,var,yok,yok,yok,yok,yok,yok,yok,yok,kademe_5,iyi,bilinmiyor,kotu,50_75_m2,2_oda,alcak_1_3_kat,1_banyo,yok,yok,yok,dusuk,dusuk,dusuk,yok,2_3_Milyon_TL_Arasi
Tokat,Merkez,Satilik,0,6,Kombi_Dogalgaz,bilinmiyor,yok,var,var,var,yok,yok,yok,yok,yok,yok,var,yok,yok,yok,yok,yok,yok,yok,yok,yok,yok,yok,yok,yok,yok,yok,yok,yok,yok,yok,kademe_5,normal,bilinmiyor,iyi,125_150_m2,4_oda,yuksek_8_15_kat,1_banyo,yok,yok,yok,dusuk,yok,dusuk,yok,5_7_Bucuk_Milyon_TL_Arasi
Hatay,Antakya,Satilik,0,4,Kombi_Dogalgaz,bilinmiyor,yok,var,var,var,yok,var,var,var,yok,yok,var,var,yok,var,yok,yok,yok,yok,yok,yok,yok,yok,var,yok,yok,var,yok,yok,yok,yok,kademe_5,normal,bilinmiyor,bilinmiyor,150_200_m2,4_oda,yuksek_8_15_kat,2_banyo,dusuk,dusuk,yok,orta,orta,yuksek,yok,5_7_Bucuk_Milyon_TL_Arasi
Tokat,Niksar,Satilik,0,4,Kombi_Dogalgaz,bilinmiyor,yok,var,var,var,yok,yok,yok,var,yok,yok,var,yok,yok,var,yok,yok,yok,var,yok,yok,yok,yok,yok,yok,yok,yok,yok,yok,yok,yok,kademe_5,iyi,normal,normal,100_125_m2,3_oda,orta_4_7_kat,1_banyo,yok,yok,yok,dusuk,orta,orta,yok,3_4_Milyon_TL_Arasi
Kahramanmaras,Onikisubat,Satilik,1_5_arasi,Bahce,Kombi,bilinmiyor,yok,var,yok,yok,yok,var,var,var,var,yok,var,var,yok,var,yok,yok,yok,yok,yok,yok,yok,yok,var,yok,yok,yok,var,yok,yok,yok,kademe_5,normal,normal,bilinmiyor,200_300_m2,5_oda,bilinmiyor,2_banyo,yok,dusuk,yok,orta,orta,yuksek,yok,5_7_Bucuk_Milyon_TL_Arasi
Hatay,Arsuz,Satilik,0,3,Kombi_Dogalgaz,bilinmiyor,yok,var,var,var,yok,var,var,var,yok,yok,var,yok,yok,yok,yok,yok,yok,yok,yok,yok,yok,var,var,yok,yok,var,var,yok,yok,yok,kademe_5,normal,iyi,bilinmiyor,200_300_m2,5_oda,orta_4_7_kat,2_banyo,dusuk,dusuk,dusuk,dusuk,orta,orta,yok,7_Bucuk_10_Milyon_TL_Arasi
Kahramanmaras,Onikisubat,Satilik,1_5_arasi,7,Klima,bilinmiyor,yok,yok,var,var,var,yok,var,yok,var,yok,var,yok,yok,var,yok,yok,yok,yok,yok,yok,yok,yok,var,yok,yok,var,yok,yok,yok,yok,kademe_5,iyi,normal,kotu,50_75_m2,2_oda,yuksek_8_15_kat,bilinmiyor,dusuk,yok,yok,dusuk,yok,yuksek,yok,2_3_Milyon_TL_Arasi
Kahramanmaras,Dulkadiroglu,Satilik,0,1,Kombi,bilinmiyor,yok,var,yok,var,yok,yok,var,var,var,yok,yok,yok,yok,yok,yok,yok,yok,yok,yok,yok,yok,yok,yok,yok,yok,yok,yok,yok,yok,yok,kademe_5,iyi,iyi,bilinmiyor,100_125_m2,3_oda,orta_4_7_kat,1_banyo,yok,yok,yok,dusuk,yok,yok,yok,2_3_Milyon_TL_Arasi
Kahramanmaras,Onikisubat,Satilik,0,2,Kombi_Dogalgaz,bilinmiyor,yok,var,var,var,yok,yok,var,var,var,yok,var,yok,yok,yok,yok,yok,yok,yok,yok,yok,yok,yok,yok,yok,yok,var,yok,yok,yok,yok,kademe_5,iyi,normal,bilinmiyor,125_150_m2,4_oda,orta_4_7_kat,bilinmiyor,dusuk,yok,yok,dusuk,dusuk,orta,yok,5_7_Bucuk_Milyon_TL_Arasi
Hatay,Antakya,Satilik,6_10_arasi,3,Kombi,bilinmiyor,yok,var,var,var,yok,yok,yok,yok,yok,yok,yok,yok,yok,yok,yok,yok,yok,yok,yok,yok,yok,yok,yok,yok,yok,yok,yok,yok,yok,yok,kademe_5,normal,normal,bilinmiyor,200_300_m2,6_oda,orta_4_7_kat,2_banyo,yok,yok,yok,dusuk,yok,dusuk,yok,3_4_Milyon_TL_Arasi
Osmaniye,Merkez,Satilik,16_20_arasi,bilinmiyor,Klima,bilinmiyor,yok,yok,yok,yok,yok,var,var,var,var,yok,yok,yok,yok,yok,yok,yok,yok,yok,yok,yok,yok,yok,yok,yok,yok,yok,yok,yok,yok,yok,kademe_5,normal,kotu,bilinmiyor,125_150_m2,4_oda,alcak_1_3_kat,1_banyo,yok,yok,yok,dusuk,orta,dusuk,yok,5_7_Bucuk_Milyon_TL_Arasi
Hatay,Antakya,Satilik,6_10_arasi,3,Gunes_Enerjisi,bilinmiyor,yok,yok,yok,yok,var,yok,var,var,yok,yok,yok,yok,yok,yok,yok,yok,yok,yok,yok,yok,yok,yok,yok,yok,yok,yok,yok,yok,yok,yok,kademe_5,iyi,normal,kotu,75_100_m2,2_oda,orta_4_7_kat,1_banyo,yok,yok,yok,dusuk,yok,yok,yok,1_5_Milyon_TL_Alti
Hatay,Dortyol,Satilik,16_20_arasi,1,Kombi,bilinmiyor,yok,var,var,yok,yok,var,var,var,var,yok,var,yok,yok,yok,yok,yok,yok,yok,yok,yok,yok,yok,yok,yok,yok,var,yok,yok,yok,yok,kademe_5,normal,bilinmiyor,kotu,150_200_m2,4_oda,orta_4_7_kat,1_banyo,yok,yok,dusuk,dusuk,orta,orta,yok,2_3_Milyon_TL_Arasi
Yozgat,Merkez,Satilik,21_25_arasi,4,Kombi_Dogalgaz,bilinmiyor,yok,var,var,var,yok,yok,yok,yok,yok,yok,var,yok,yok,var,yok,yok,yok,yok,yok,yok,yok,yok,var,yok,yok,var,yok,yok,yok,yok,kademe_5,normal,kotu,bilinmiyor,100_125_m2,4_oda,orta_4_7_kat,1_banyo,yok,yok,yok,dusuk,orta,yuksek,yok,1_5_2_Milyon_TL_Arasi
Tokat,Merkez,Satilik,1_5_arasi,4,Kombi_Dogalgaz,bilinmiyor,yok,yok,var,var,yok,var,var,var,var,yok,var,yok,yok,yok,yok,yok,yok,yok,yok,yok,yok,yok,yok,yok,yok,var,yok,yok,yok,yok,kademe_5,normal,normal,bilinmiyor,100_125_m2,3_oda,orta_4_7_kat,1_banyo,yok,yok,yok,dusuk,yok,yok,yok,4_5_Milyon_TL_Arasi
Hatay,Iskenderun,Satilik,16_20_arasi,4,Klima,bilinmiyor,yok,var,var,var,yok,var,var,var,yok,yok,var,var,yok,yok,yok,yok,yok,yok,yok,yok,yok,yok,yok,yok,yok,var,yok,yok,yok,yok,kademe_5,normal,kotu,bilinmiyor,100_125_m2,3_oda,orta_4_7_kat,1_banyo,yok,yok,yok,dusuk,orta,orta,yok,3_4_Milyon_TL_Arasi
Kahramanmaras,Onikisubat,Satilik,6_10_arasi,1,Kombi,bilinmiyor,yok,var,yok,var,yok,yok,var,var,var,yok,var,var,yok,yok,yok,yok,yok,yok,yok,yok,yok,yok,var,yok,yok,yok,yok,yok,yok,yok,kademe_5,normal,normal,normal,150_200_m2,5_oda,yuksek_8_15_kat,2_banyo,dusuk,yok,dusuk,orta,orta,orta,yok,3_4_Milyon_TL_Arasi
Yozgat,Merkez,Satilik,1_5_arasi,7,Kombi,bilinmiyor,yok,var,yok,var,yok,var,yok,var,yok,yok,yok,yok,yok,yok,yok,yok,yok,yok,yok,yok,yok,yok,yok,yok,yok,var,yok,yok,yok,yok,kademe_5,iyi,iyi,iyi,125_150_m2,4_oda,yuksek_8_15_kat,2_banyo,dusuk,yok,yok,orta,yuksek,orta,yok,5_7_Bucuk_Milyon_TL_Arasi
Tokat,Merkez,Satilik,6_10_arasi,Giris,Kombi_Dogalgaz,bilinmiyor,yok,var,var,var,var,var,var,var,var,yok,var,yok,yok,yok,yok,yok,yok,yok,var,var,yok,yok,yok,yok,yok,yok,yok,yok,yok,yok,kademe_5,normal,bilinmiyor,bilinmiyor,50_75_m2,2_oda,yuksek_8_15_kat,1_banyo,dusuk,yok,dusuk,dusuk,yok,yuksek,yok,3_4_Milyon_TL_Arasi
Hatay,Defne,Satilik,1_5_arasi,5,Kombi,bilinmiyor,yok,var,yok,var,yok,yok,yok,yok,yok,yok,yok,yok,yok,yok,yok,yok,yok,yok,yok,yok,yok,yok,yok,yok,yok,yok,yok,yok,yok,yok,kademe_5,iyi,kotu,iyi,150_200_m2,4_oda,orta_4_7_kat,2_banyo,yok,yok,yok,dusuk,yok,yok,yok,3_4_Milyon_TL_Arasi
Hatay,Arsuz,Satilik,6_10_arasi,9,Kombi_Dogalgaz,bilinmiyor,yok,var,var,var,yok,yok,var,var,yok,yok,var,var,yok,var,yok,yok,yok,yok,var,yok,yok,yok,yok,yok,yok,var,yok,yok,yok,yok,kademe_5,bilinmiyor,bilinmiyor,bilinmiyor,150_200_m2,4_oda,yuksek_8_15_kat,2_banyo,dusuk,dusuk,yok,orta,yok,yuksek,yok,4_5_Milyon_TL_Arasi
Hatay,Arsuz,Satilik,16_20_arasi,Bahce,Klima,bilinmiyor,yok,var,yok,var,yok,var,yok,var,var,yok,var,var,yok,yok,yok,yok,yok,yok,var,yok,yok,var,yok,yok,yok,yok,yok,var,yok,var,kademe_5,normal,kotu,bilinmiyor,200_300_m2,6_oda,orta_4_7_kat,2_banyo,dusuk,dusuk,dusuk,dusuk,dusuk,yuksek,yok,10_Milyon_TL_Ustu
Erzurum,Aziziye,Satilik,0,3,Merkezi,bilinmiyor,yok,var,var,var,yok,var,var,var,var,yok,var,var,yok,var,yok,yok,yok,yok,yok,yok,yok,yok,yok,yok,yok,yok,yok,yok,yok,yok,kademe_5,iyi,bilinmiyor,bilinmiyor,125_150_m2,3_oda,orta_4_7_kat,2_banyo,dusuk,dusuk,dusuk,dusuk,orta,yuksek,yok,4_5_Milyon_TL_Arasi
Hatay,Iskenderun,Satilik,26_30_arasi,Yuksek_Giris,belirtilmemis_elektrik,bilinmiyor,yok,yok,yok,yok,yok,yok,yok,yok,yok,yok,yok,yok,yok,yok,yok,yok,yok,yok,yok,yok,yok,yok,yok,yok,yok,yok,yok,yok,yok,yok,kademe_5,normal,normal,bilinmiyor,150_200_m2,4_oda,orta_4_7_kat,1_banyo,yok,yok,yok,dusuk,yok,yok,yok,2_3_Milyon_TL_Arasi
Hatay,Dortyol,Satilik,6_10_arasi,5,Kombi,bilinmiyor,yok,var,var,var,yok,var,yok,var,var,yok,yok,yok,yok,yok,yok,yok,yok,yok,yok,yok,yok,yok,var,yok,yok,yok,yok,yok,yok,yok,kademe_5,iyi,bilinmiyor,bilinmiyor,150_200_m2,5_oda,yuksek_8_15_kat,2_banyo,dusuk,yok,yok,dusuk,dusuk,dusuk,yok,5_7_Bucuk_Milyon_TL_Arasi
Hatay,Arsuz,Satilik,6_10_arasi,11,Merkezi,bilinmiyor,yok,var,var,var,yok,yok,yok,yok,yok,yok,var,var,yok,yok,yok,yok,yok,yok,var,yok,yok,yok,yok,yok,yok,var,var,yok,yok,yok,kademe_5,iyi,iyi,iyi,200_300_m2,5_oda,yuksek_8_15_kat,2_banyo,dusuk,orta,dusuk,dusuk,orta,yuksek,yok,10_Milyon_TL_Ustu
Hatay,Defne,Satilik,1_5_arasi,bilinmiyor,isi_pompasi_elektrik,bilinmiyor,yok,var,var,var,yok,var,var,var,var,yok,var,var,yok,yok,yok,yok,yok,yok,var,var,yok,yok,var,yok,yok,var,yok,yok,yok,var,kademe_5,bilinmiyor,bilinmiyor,bilinmiyor,300_m2_ve_ustu,7_oda_ve_ustu,orta_4_7_kat,3_banyo_ve_ustu,dusuk,orta,yok,dusuk,yok,yuksek,yok,10_Milyon_TL_Ustu
Hatay,Defne,Satilik,6_10_arasi,2,Kombi_Dogalgaz,bilinmiyor,yok,var,var,var,yok,yok,yok,yok,var,yok,var,var,yok,yok,yok,yok,yok,yok,yok,yok,yok,yok,var,yok,yok,var,yok,yok,yok,yok,kademe_5,normal,kotu,bilinmiyor,125_150_m2,4_oda,orta_4_7_kat,1_banyo,orta,dusuk,yok,orta,orta,yuksek,yok,2_3_Milyon_TL_Arasi
Hatay,Antakya,Satilik,6_10_arasi,Bahce,Kombi,bilinmiyor,yok,yok,yok,yok,yok,yok,yok,yok,yok,yok,yok,yok,yok,yok,yok,yok,yok,yok,yok,yok,yok,yok,yok,yok,yok,yok,yok,yok,yok,yok,kademe_5,normal,bilinmiyor,normal,75_100_m2,2_oda,orta_4_7_kat,1_banyo,yok,yok,yok,dusuk,yok,yok,yok,1_5_Milyon_TL_Alti
Erzurum,Yakutiye,Satilik,0,2,Merkezi,bilinmiyor,yok,var,var,var,yok,var,yok,var,yok,yok,var,yok,yok,var,yok,yok,yok,yok,yok,yok,yok,yok,var,yok,yok,var,yok,yok,yok,yok,kademe_5,iyi,bilinmiyor,iyi,50_75_m2,2_oda,orta_4_7_kat,1_banyo,yok,yok,yok,dusuk,yok,yuksek,yok,1_5_2_Milyon_TL_Arasi
Hatay,Iskenderun,Satilik,6_10_arasi,En_Ust_Kat,Klima,bilinmiyor,yok,yok,yok,yok,var,yok,var,yok,var,yok,yok,yok,yok,yok,yok,yok,yok,yok,yok,yok,yok,yok,yok,yok,yok,yok,yok,yok,var,yok,kademe_5,normal,kotu,bilinmiyor,125_150_m2,4_oda,orta_4_7_kat,2_banyo,yok,yok,yok,dusuk,yok,dusuk,yok,2_3_Milyon_TL_Arasi
Nigde,Merkez,Satilik,16_20_arasi,5,Merkezi,bilinmiyor,yok,var,var,var,yok,yok,var,var,var,yok,var,yok,yok,var,yok,yok,yok,yok,yok,yok,yok,yok,yok,yok,yok,yok,yok,yok,yok,yok,kademe_5,iyi,iyi,bilinmiyor,150_200_m2,3_oda,yuksek_8_15_kat,1_banyo,dusuk,dusuk,yok,dusuk,yok,yuksek,yok,5_7_Bucuk_Milyon_TL_Arasi
Yozgat,Merkez,Satilik,1_5_arasi,2,Merkezi,bilinmiyor,yok,var,var,var,yok,yok,yok,yok,yok,yok,var,yok,yok,yok,yok,yok,yok,yok,yok,yok,yok,yok,yok,yok,yok,var,yok,yok,yok,yok,kademe_5,iyi,iyi,bilinmiyor,125_150_m2,4_oda,orta_4_7_kat,2_banyo,yok,yok,yok,dusuk,orta,yuksek,yok,5_7_Bucuk_Milyon_TL_Arasi
Tokat,Merkez,Satilik,6_10_arasi,21_ve_uzeri,Merkezi,bilinmiyor,yok,var,var,var,yok,var,yok,var,var,yok,var,var,yok,var,yok,yok,yok,yok,var,yok,yok,yok,var,yok,yok,var,yok,yok,yok,yok,kademe_5,normal,iyi,iyi,200_300_m2,5_oda,cok_yuksek_16_ustu_kat,2_banyo,dusuk,yok,dusuk,dusuk,orta,yuksek,yok,5_7_Bucuk_Milyon_TL_Arasi
Tokat,Niksar,Satilik,0,2,Kombi_Dogalgaz,bilinmiyor,yok,yok,var,var,yok,yok,yok,var,yok,yok,yok,yok,yok,var,yok,yok,yok,yok,yok,yok,yok,yok,yok,yok,yok,yok,yok,yok,yok,yok,kademe_5,normal,bilinmiyor,normal,150_200_m2,4_oda,orta_4_7_kat,2_banyo,yok,yok,yok,dusuk,orta,orta,yok,5_7_Bucuk_Milyon_TL_Arasi
Hatay,Belen,Satilik,6_10_arasi,4,Kombi_Dogalgaz,bilinmiyor,yok,var,var,var,yok,yok,var,var,var,yok,var,var,yok,var,yok,yok,yok,yok,yok,yok,yok,var,yok,yok,yok,var,var,yok,var,yok,kademe_5,kotu,bilinmiyor,bilinmiyor,300_m2_ve_ustu,5_oda,orta_4_7_kat,2_banyo,dusuk,orta,yok,dusuk,dusuk,yuksek,yok,7_Bucuk_10_Milyon_TL_Arasi
Hatay,Arsuz,Satilik,0,Bahce,Kombi,bilinmiyor,yok,yok,yok,var,yok,var,var,var,var,yok,var,var,yok,yok,yok,yok,yok,yok,var,yok,yok,yok,var,yok,yok,var,yok,yok,yok,var,kademe_5,iyi,bilinmiyor,bilinmiyor,300_m2_ve_ustu,5_oda,orta_4_7_kat,3_banyo_ve_ustu,yok,dusuk,dusuk,dusuk,orta,yuksek,yok,10_Milyon_TL_Ustu
Hatay,Arsuz,Satilik,0,3,isitma_yok,bilinmiyor,yok,var,var,var,yok,var,yok,var,var,yok,var,yok,yok,yok,yok,yok,yok,yok,yok,yok,yok,yok,var,yok,yok,var,var,yok,yok,yok,kademe_5,bilinmiyor,bilinmiyor,iyi,200_300_m2,3_oda,orta_4_7_kat,2_banyo,yok,dusuk,dusuk,orta,orta,yuksek,yok,5_7_Bucuk_Milyon_TL_Arasi
Nigde,Merkez,Satilik,16_20_arasi,10,Merkezi,bilinmiyor,yok,var,var,var,yok,var,yok,yok,var,yok,var,var,yok,var,yok,yok,yok,var,yok,yok,yok,yok,yok,yok,yok,var,var,yok,yok,yok,kademe_5,iyi,normal,bilinmiyor,300_m2_ve_ustu,7_oda_ve_ustu,yuksek_8_15_kat,3_banyo_ve_ustu,orta,dusuk,dusuk,orta,orta,yuksek,yok,7_Bucuk_10_Milyon_TL_Arasi
Hatay,Belen,Satilik,21_25_arasi,Bahce,Kombi,bilinmiyor,yok,var,yok,var,yok,yok,var,yok,var,yok,yok,yok,yok,yok,yok,yok,yok,yok,yok,yok,yok,yok,yok,yok,yok,yok,yok,var,yok,yok,kademe_5,bilinmiyor,bilinmiyor,bilinmiyor,150_200_m2,4_oda,bilinmiyor,1_banyo,yok,yok,yok,orta,yok,yok,yok,10_Milyon_TL_Ustu
Kahramanmaras,Dulkadiroglu,Satilik,6_10_arasi,3,Kombi,bilinmiyor,yok,var,yok,var,yok,var,var,var,var,yok,var,yok,yok,yok,yok,yok,yok,yok,yok,yok,yok,yok,yok,yok,yok,yok,yok,yok,yok,yok,kademe_5,bilinmiyor,bilinmiyor,bilinmiyor,300_m2_ve_ustu,4_oda,orta_4_7_kat,2_banyo,yok,yok,yok,dusuk,yok,dusuk,yok,5_7_Bucuk_Milyon_TL_Arasi
Kahramanmaras,Dulkadiroglu,Satilik,0,3,Kombi_Dogalgaz,bilinmiyor,yok,var,yok,yok,yok,yok,var,var,yok,yok,var,yok,yok,yok,yok,yok,yok,yok,yok,yok,yok,yok,yok,yok,yok,yok,yok,yok,yok,yok,kademe_5,kotu,normal,bilinmiyor,75_100_m2,2_oda,orta_4_7_kat,1_banyo,yok,yok,yok,dusuk,yok,dusuk,yok,2_3_Milyon_TL_Arasi
Hatay,Antakya,Satilik,6_10_arasi,Yuksek_Giris,Kombi_Dogalgaz,bilinmiyor,yok,var,var,var,yok,var,yok,var,var,yok,var,yok,yok,var,yok,yok,yok,yok,yok,yok,yok,yok,yok,yok,yok,yok,yok,yok,yok,yok,kademe_5,normal,normal,normal,75_100_m2,3_oda,orta_4_7_kat,1_banyo,yok,yok,yok,dusuk,yok,orta,yok,1_5_2_Milyon_TL_Arasi
Hatay,Iskenderun,Satilik,31_ve_uzeri,Kot_3,Klima,bilinmiyor,yok,var,yok,yok,yok,yok,yok,var,var,yok,yok,yok,yok,yok,yok,yok,yok,yok,yok,yok,yok,yok,yok,yok,yok,yok,yok,yok,yok,yok,kademe_5,kotu,bilinmiyor,bilinmiyor,125_150_m2,4_oda,orta_4_7_kat,1_banyo,yok,yok,yok,dusuk,yok,dusuk,yok,2_3_Milyon_TL_Arasi
Hatay,Arsuz,Satilik,21_25_arasi,Bahce,isitma_yok,bilinmiyor,yok,yok,yok,var,yok,yok,yok,yok,yok,yok,var,var,yok,yok,yok,yok,yok,yok,var,yok,yok,yok,yok,yok,yok,yok,yok,yok,yok,yok,kademe_5,bilinmiyor,bilinmiyor,bilinmiyor,150_200_m2,4_oda,alcak_1_3_kat,2_banyo,yok,dusuk,yok,dusuk,orta,yuksek,yok,10_Milyon_TL_Ustu
Hatay,Antakya,Satilik,6_10_arasi,1,Kombi,bilinmiyor,yok,var,var,var,yok,var,var,yok,yok,yok,yok,var,yok,var,yok,yok,yok,yok,yok,yok,yok,yok,var,yok,yok,var,yok,yok,yok,yok,kademe_5,iyi,iyi,normal,150_200_m2,4_oda,yuksek_8_15_kat,2_banyo,dusuk,yok,dusuk,orta,orta,yuksek,yok,5_7_Bucuk_Milyon_TL_Arasi
Hatay,Iskenderun,Satilik,1_5_arasi,1,Kombi_Dogalgaz,bilinmiyor,yok,var,var,var,yok,var,var,yok,var,yok,var,var,yok,yok,yok,yok,yok,yok,yok,yok,var,var,var,yok,yok,var,yok,yok,yok,yok,kademe_5,iyi,normal,kotu,150_200_m2,4_oda,yuksek_8_15_kat,2_banyo,dusuk,dusuk,yok,dusuk,yok,yuksek,yok,4_5_Milyon_TL_Arasi
Tokat,Merkez,Satilik,26_30_arasi,2,Kombi_Dogalgaz,bilinmiyor,yok,yok,yok,var,yok,var,var,var,yok,yok,var,yok,yok,yok,yok,yok,yok,yok,yok,yok,yok,yok,yok,yok,yok,var,yok,yok,yok,yok,kademe_5,bilinmiyor,iyi,bilinmiyor,100_125_m2,3_oda,orta_4_7_kat,1_banyo,yok,yok,yok,dusuk,orta,orta,yok,3_4_Milyon_TL_Arasi
Hatay,Dortyol,Satilik,16_20_arasi,1,Kombi,bilinmiyor,yok,var,var,var,yok,var,var,yok,var,yok,var,yok,yok,yok,yok,yok,yok,yok,yok,yok,yok,yok,yok,yok,yok,var,yok,yok,yok,yok,kademe_5,iyi,kotu,bilinmiyor,150_200_m2,4_oda,orta_4_7_kat,1_banyo,yok,yok,dusuk,orta,orta,dusuk,yok,2_3_Milyon_TL_Arasi
Hatay,Dortyol,Satilik,6_10_arasi,4,Kombi,bilinmiyor,yok,yok,yok,var,var,var,var,var,var,yok,var,yok,yok,yok,yok,yok,yok,yok,yok,yok,yok,yok,var,yok,yok,yok,yok,yok,yok,yok,kademe_5,normal,normal,bilinmiyor,0_50_m2,2_oda,orta_4_7_kat,1_banyo,yok,yok,dusuk,orta,orta,yuksek,yok,1_5_Milyon_TL_Alti
Hatay,Iskenderun,Satilik,6_10_arasi,Ara_Kat,Klima,bilinmiyor,yok,var,yok,yok,yok,var,var,yok,yok,yok,yok,yok,yok,yok,yok,yok,yok,yok,yok,yok,yok,yok,yok,yok,yok,yok,yok,yok,yok,yok,kademe_5,bilinmiyor,bilinmiyor,bilinmiyor,150_200_m2,4_oda,alcak_1_3_kat,1_banyo,yok,yok,yok,dusuk,yok,dusuk,yok,3_4_Milyon_TL_Arasi
Hatay,Iskenderun,Satilik,11_15_arasi,Yuksek_Giris,Kombi,bilinmiyor,yok,var,var,var,yok,yok,var,var,yok,yok,var,yok,yok,yok,yok,yok,yok,yok,yok,yok,yok,yok,yok,yok,yok,yok,yok,yok,yok,yok,kademe_5,iyi,normal,bilinmiyor,150_200_m2,4_oda,orta_4_7_kat,1_banyo,yok,yok,dusuk,orta,orta,yuksek,yok,3_4_Milyon_TL_Arasi
Tokat,Niksar,Satilik,0,6,Yerden_Isitma,bilinmiyor,yok,var,var,yok,yok,yok,var,var,yok,yok,var,yok,yok,yok,yok,yok,yok,yok,yok,yok,yok,yok,yok,yok,yok,yok,yok,yok,yok,yok,kademe_5,normal,normal,kotu,75_100_m2,2_oda,yuksek_8_15_kat,1_banyo,dusuk,yok,yok,dusuk,yok,yuksek,yok,4_5_Milyon_TL_Arasi
Hatay,Iskenderun,Satilik,16_20_arasi,2,Kombi_Dogalgaz,bilinmiyor,yok,var,yok,yok,yok,yok,var,var,var,yok,var,var,yok,yok,yok,yok,yok,yok,yok,yok,yok,yok,yok,yok,yok,var,yok,yok,yok,yok,kademe_5,iyi,normal,iyi,150_200_m2,4_oda,orta_4_7_kat,2_banyo,yok,dusuk,yok,dusuk,yok,yuksek,yok,4_5_Milyon_TL_Arasi
Kahramanmaras,Dulkadiroglu,Satilik,0,Giris,Kombi_Dogalgaz,bilinmiyor,yok,yok,yok,var,yok,var,var,yok,var,yok,var,var,yok,yok,yok,yok,yok,yok,yok,yok,yok,yok,yok,yok,yok,var,yok,yok,yok,yok,kademe_5,iyi,normal,normal,75_100_m2,3_oda,alcak_1_3_kat,2_banyo,yok,dusuk,yok,dusuk,dusuk,orta,yok,2_3_Milyon_TL_Arasi
Hatay,Arsuz,Satilik,16_20_arasi,bilinmiyor,Kombi_Dogalgaz,bilinmiyor,yok,var,yok,var,yok,var,var,var,var,yok,var,var,yok,var,yok,yok,yok,yok,yok,yok,yok,var,var,yok,yok,var,yok,var,yok,yok,kademe_5,bilinmiyor,bilinmiyor,bilinmiyor,200_300_m2,6_oda,alcak_1_3_kat,2_banyo,yok,yok,dusuk,dusuk,yok,yuksek,yok,10_Milyon_TL_Ustu
Hatay,Belen,Satilik,21_25_arasi,bilinmiyor,Kombi_Dogalgaz,bilinmiyor,yok,var,yok,var,yok,yok,var,var,var,yok,var,var,yok,yok,yok,yok,yok,yok,yok,yok,yok,var,var,yok,yok,var,var,yok,yok,yok,kademe_5,kotu,kotu,bilinmiyor,200_300_m2,4_oda,alcak_1_3_kat,2_banyo,yok,dusuk,dusuk,orta,orta,yuksek,yok,5_7_Bucuk_Milyon_TL_Arasi
Hatay,Iskenderun,Satilik,6_10_arasi,Zemin,Klima,bilinmiyor,yok,yok,yok,yok,yok,yok,yok,yok,yok,yok,yok,yok,yok,yok,yok,yok,yok,yok,yok,yok,yok,var,var,yok,yok,var,yok,yok,yok,yok,kademe_5,normal,bilinmiyor,kotu,125_150_m2,4_oda,orta_4_7_kat,1_banyo,yok,yok,yok,dusuk,orta,dusuk,yok,2_3_Milyon_TL_Arasi
Erzurum,Yakutiye,Satilik,0,5,Merkezi,bilinmiyor,yok,var,var,var,yok,yok,var,var,yok,yok,var,var,yok,yok,yok,yok,yok,yok,yok,yok,yok,yok,yok,yok,yok,var,yok,yok,yok,yok,kademe_5,iyi,normal,bilinmiyor,150_200_m2,5_oda,orta_4_7_kat,2_banyo,yok,dusuk,yok,orta,orta,yuksek,yok,5_7_Bucuk_Milyon_TL_Arasi
Hatay,Iskenderun,Satilik,26_30_arasi,Yuksek_Giris,Klima,bilinmiyor,yok,var,yok,yok,yok,yok,yok,yok,yok,yok,yok,yok,yok,yok,yok,yok,yok,yok,yok,yok,yok,yok,yok,yok,yok,yok,yok,yok,yok,yok,kademe_5,iyi,iyi,bilinmiyor,125_150_m2,3_oda,orta_4_7_kat,1_banyo,yok,yok,yok,dusuk,yok,dusuk,yok,3_4_Milyon_TL_Arasi
Hatay,Kirikhan,Satilik,11_15_arasi,6,Kombi,bilinmiyor,yok,var,var,var,yok,var,var,var,yok,yok,var,yok,yok,yok,yok,yok,yok,yok,yok,yok,yok,yok,yok,yok,yok,yok,yok,yok,yok,yok,kademe_5,normal,kotu,kotu,125_150_m2,4_oda,yuksek_8_15_kat,1_banyo,yok,yok,yok,dusuk,yok,dusuk,yok,2_3_Milyon_TL_Arasi
Hatay,Belen,Satilik,6_10_arasi,Bodrum,Klima,bilinmiyor,yok,var,var,var,yok,yok,yok,yok,yok,yok,yok,yok,yok,yok,yok,yok,yok,yok,yok,yok,yok,yok,yok,yok,yok,yok,yok,yok,yok,yok,kademe_5,bilinmiyor,bilinmiyor,bilinmiyor,100_125_m2,3_oda,orta_4_7_kat,1_banyo,yok,yok,yok,dusuk,yok,dusuk,yok,2_3_Milyon_TL_Arasi
Hatay,Dortyol,Satilik,1_5_arasi,Bahce,Klima,bilinmiyor,yok,var,yok,yok,var,var,var,var,var,yok,yok,yok,yok,yok,yok,yok,yok,yok,yok,yok,yok,yok,yok,yok,yok,yok,yok,yok,yok,yok,kademe_5,kotu,iyi,bilinmiyor,150_200_m2,3_oda,bilinmiyor,1_banyo,yok,yok,yok,dusuk,dusuk,yuksek,yok,7_Bucuk_10_Milyon_TL_Arasi
Osmaniye,Merkez,Satilik,16_20_arasi,Bahce,Klima,bilinmiyor,yok,var,yok,yok,yok,var,var,var,yok,yok,yok,yok,yok,yok,yok,yok,yok,yok,yok,yok,yok,yok,yok,yok,yok,var,yok,yok,yok,yok,kademe_5,bilinmiyor,bilinmiyor,bilinmiyor,150_200_m2,4_oda,bilinmiyor,2_banyo,yok,yok,dusuk,dusuk,dusuk,orta,yok,4_5_Milyon_TL_Arasi
Nigde,Bor,Satilik,6_10_arasi,3,Merkezi,bilinmiyor,yok,var,var,var,yok,yok,yok,yok,yok,yok,yok,yok,yok,yok,yok,yok,yok,yok,yok,yok,yok,yok,yok,yok,yok,var,yok,yok,yok,yok,kademe_5,kotu,kotu,bilinmiyor,125_150_m2,4_oda,orta_4_7_kat,1_banyo,yok,dusuk,yok,dusuk,yok,orta,yok,3_4_Milyon_TL_Arasi
Bayburt,Merkez,Satilik,6_10_arasi,1,Kombi_Dogalgaz,bilinmiyor,yok,var,var,yok,yok,yok,var,yok,yok,yok,var,yok,yok,var,yok,yok,yok,yok,yok,yok,yok,yok,yok,yok,yok,yok,yok,yok,yok,yok,kademe_5,iyi,iyi,bilinmiyor,125_150_m2,4_oda,yuksek_8_15_kat,1_banyo,dusuk,yok,yok,dusuk,orta,yuksek,yok,3_4_Milyon_TL_Arasi
Hatay,Arsuz,Satilik,21_25_arasi,bilinmiyor,Klima,bilinmiyor,yok,yok,yok,var,var,yok,yok,yok,yok,yok,yok,yok,yok,yok,yok,yok,yok,yok,yok,yok,yok,yok,yok,yok,yok,yok,yok,var,yok,yok,kademe_5,normal,normal,bilinmiyor,150_200_m2,3_oda,alcak_1_3_kat,2_banyo,yok,yok,yok,dusuk,yok,dusuk,yok,5_7_Bucuk_Milyon_TL_Arasi
Hatay,Dortyol,Satilik,0,1,Kombi_Dogalgaz,bilinmiyor,yok,yok,yok,yok,yok,yok,yok,yok,yok,yok,yok,yok,yok,yok,yok,yok,yok,yok,yok,yok,yok,yok,yok,yok,yok,yok,yok,yok,yok,yok,kademe_5,normal,normal,iyi,100_125_m2,3_oda,orta_4_7_kat,1_banyo,yok,yok,yok,dusuk,yok,yok,yok,4_5_Milyon_TL_Arasi
Tokat,Merkez,Satilik,26_30_arasi,En_Ust_Kat,Kombi_Dogalgaz,bilinmiyor,yok,var,yok,yok,yok,yok,yok,var,var,yok,var,yok,yok,var,yok,yok,yok,yok,yok,yok,yok,yok,yok,yok,yok,var,yok,yok,yok,yok,kademe_5,kotu,kotu,bilinmiyor,100_125_m2,3_oda,orta_4_7_kat,1_banyo,yok,yok,yok,dusuk,orta,orta,yok,3_4_Milyon_TL_Arasi
Hatay,Defne,Satilik,0,Yuksek_Giris,Kombi_Dogalgaz,bilinmiyor,yok,var,var,var,yok,var,var,var,var,yok,yok,yok,yok,yok,yok,yok,yok,yok,yok,yok,yok,yok,yok,yok,yok,yok,yok,yok,yok,yok,kademe_5,kotu,bilinmiyor,kotu,125_150_m2,4_oda,orta_4_7_kat,1_banyo,yok,yok,yok,dusuk,yok,yok,yok,3_4_Milyon_TL_Arasi
Bartin,Merkez,Satilik,6_10_arasi,Yuksek_Giris,Kombi_Dogalgaz,bilinmiyor,yok,var,var,var,yok,var,var,var,var,yok,yok,yok,yok,yok,yok,yok,yok,yok,yok,yok,yok,yok,yok,yok,yok,yok,yok,yok,yok,yok,kademe_5,kotu,normal,bilinmiyor,125_150_m2,4_oda,orta_4_7_kat,1_banyo,yok,yok,yok,dusuk,yok,orta,yok,4_5_Milyon_TL_Arasi
Kahramanmaras,Onikisubat,Satilik,0,2,Kombi_Dogalgaz,bilinmiyor,yok,var,var,var,yok,yok,var,var,yok,yok,var,var,yok,var,yok,yok,yok,var,yok,yok,yok,yok,yok,yok,yok,var,yok,yok,yok,yok,kademe_5,bilinmiyor,bilinmiyor,bilinmiyor,150_200_m2,4_oda,orta_4_7_kat,2_banyo,dusuk,dusuk,yok,dusuk,orta,yuksek,yok,4_5_Milyon_TL_Arasi
Tokat,Merkez,Satilik,6_10_arasi,4,Merkezi,bilinmiyor,yok,var,var,var,yok,yok,yok,var,yok,yok,var,yok,yok,yok,yok,yok,yok,yok,yok,yok,yok,yok,yok,yok,yok,var,yok,yok,yok,yok,kademe_5,iyi,bilinmiyor,iyi,200_300_m2,5_oda,yuksek_8_15_kat,2_banyo,yok,yok,yok,orta,yok,dusuk,yok,7_Bucuk_10_Milyon_TL_Arasi
Osmaniye,Merkez,Satilik,6_10_arasi,bilinmiyor,Klima,bilinmiyor,yok,yok,yok,yok,yok,var,var,var,var,yok,yok,yok,yok,yok,yok,yok,yok,yok,yok,yok,yok,yok,yok,yok,yok,yok,yok,yok,yok,yok,kademe_5,kotu,bilinmiyor,bilinmiyor,125_150_m2,3_oda,alcak_1_3_kat,1_banyo,yok,yok,yok,dusuk,dusuk,dusuk,yok,3_4_Milyon_TL_Arasi
Tokat,Merkez,Satilik,11_15_arasi,2,Kombi,bilinmiyor,yok,yok,yok,var,yok,var,yok,yok,yok,yok,var,yok,yok,yok,yok,yok,yok,yok,yok,yok,yok,yok,var,yok,yok,var,yok,yok,yok,yok,kademe_5,normal,normal,normal,0_50_m2,2_oda,alcak_1_3_kat,1_banyo,yok,yok,yok,dusuk,orta,dusuk,yok,1_5_2_Milyon_TL_Arasi
Hatay,Iskenderun,Satilik,11_15_arasi,Ara_Kat,Klima,bilinmiyor,yok,var,var,yok,yok,yok,yok,yok,yok,yok,var,yok,yok,yok,yok,yok,yok,yok,yok,yok,yok,yok,yok,yok,yok,yok,yok,yok,yok,yok,kademe_5,normal,kotu,kotu,75_100_m2,3_oda,orta_4_7_kat,1_banyo,dusuk,yok,yok,dusuk,orta,orta,yok,2_3_Milyon_TL_Arasi
Hatay,Iskenderun,Satilik,0,6,Kombi_Dogalgaz,bilinmiyor,yok,yok,yok,yok,yok,yok,yok,yok,yok,yok,yok,yok,yok,yok,yok,yok,yok,yok,yok,yok,yok,yok,yok,yok,yok,yok,var,yok,yok,yok,kademe_5,normal,bilinmiyor,bilinmiyor,300_m2_ve_ustu,5_oda,orta_4_7_kat,2_banyo,yok,yok,yok,dusuk,yok,yok,yok,5_7_Bucuk_Milyon_TL_Arasi
Hatay,Arsuz,Satilik,0,Kot_2,Klima,bilinmiyor,yok,yok,yok,yok,yok,var,var,var,var,yok,yok,yok,yok,yok,yok,yok,yok,yok,yok,yok,yok,yok,yok,yok,yok,yok,yok,yok,yok,yok,kademe_5,bilinmiyor,bilinmiyor,bilinmiyor,75_100_m2,3_oda,orta_4_7_kat,1_banyo,yok,yok,yok,dusuk,yok,dusuk,yok,5_7_Bucuk_Milyon_TL_Arasi
Tokat,Merkez,Satilik,6_10_arasi,21_ve_uzeri,Merkezi,bilinmiyor,yok,var,var,var,yok,var,var,yok,yok,yok,var,var,yok,var,yok,yok,yok,yok,var,yok,yok,yok,var,yok,yok,var,yok,yok,yok,yok,kademe_5,bilinmiyor,bilinmiyor,bilinmiyor,200_300_m2,5_oda,cok_yuksek_16_ustu_kat,2_banyo,dusuk,yok,dusuk,dusuk,dusuk,yuksek,yok,5_7_Bucuk_Milyon_TL_Arasi
Yozgat,Merkez,Satilik,21_25_arasi,Giris,Kombi_Dogalgaz,bilinmiyor,yok,yok,yok,var,yok,yok,yok,yok,yok,yok,var,yok,yok,yok,yok,yok,yok,yok,yok,yok,yok,yok,yok,yok,yok,var,yok,yok,yok,yok,kademe_5,normal,normal,normal,125_150_m2,4_oda,orta_4_7_kat,1_banyo,yok,yok,dusuk,dusuk,yok,yuksek,yok,1_5_Milyon_TL_Alti
Tokat,Merkez,Satilik,0,Bahce,Kombi,bilinmiyor,yok,yok,yok,var,yok,yok,var,yok,var,yok,var,var,yok,yok,yok,yok,yok,yok,yok,yok,yok,yok,yok,yok,yok,var,yok,yok,yok,yok,kademe_5,kotu,bilinmiyor,bilinmiyor,150_200_m2,5_oda,alcak_1_3_kat,2_banyo,yok,yok,yok,dusuk,yok,orta,yok,10_Milyon_TL_Ustu
Nigde,Merkez,Satilik,1_5_arasi,bilinmiyor,Kat_Kaloriferi,bilinmiyor,yok,yok,yok,yok,yok,var,var,var,yok,yok,var,var,yok,var,yok,yok,yok,yok,yok,yok,yok,yok,yok,yok,yok,yok,yok,yok,yok,yok,kademe_5,iyi,bilinmiyor,bilinmiyor,200_300_m2,5_oda,alcak_1_3_kat,2_banyo,yok,dusuk,yok,dusuk,yok,yuksek,yok,4_5_Milyon_TL_Arasi
Hatay,Arsuz,Satilik,1_5_arasi,Ara_Kat,Klima,bilinmiyor,yok,var,yok,yok,yok,yok,yok,yok,yok,yok,yok,yok,yok,yok,yok,yok,yok,yok,yok,yok,yok,yok,yok,yok,yok,yok,yok,yok,yok,yok,kademe_5,normal,bilinmiyor,kotu,125_150_m2,4_oda,orta_4_7_kat,2_banyo,yok,yok,yok,dusuk,yok,dusuk,yok,4_5_Milyon_TL_Arasi
Erzurum,Yakutiye,Satilik,1_5_arasi,3,Merkezi,bilinmiyor,yok,var,yok,yok,yok,var,yok,var,yok,yok,var,var,yok,yok,yok,yok,yok,yok,yok,yok,yok,yok,var,yok,yok,var,yok,yok,yok,yok,kademe_5,iyi,normal,bilinmiyor,125_150_m2,4_oda,orta_4_7_kat,2_banyo,dusuk,yok,yok,dusuk,orta,yuksek,yok,3_4_Milyon_TL_Arasi
Hatay,Arsuz,Satilik,6_10_arasi,bilinmiyor,Klima,bilinmiyor,yok,yok,yok,yok,yok,var,var,var,var,yok,yok,yok,yok,yok,yok,yok,yok,yok,yok,yok,yok,yok,yok,yok,yok,yok,yok,var,yok,yok,kademe_5,bilinmiyor,bilinmiyor,bilinmiyor,150_200_m2,4_oda,alcak_1_3_kat,2_banyo,yok,yok,yok,dusuk,yok,dusuk,yok,7_Bucuk_10_Milyon_TL_Arasi
Hatay,Belen,Satilik,1_5_arasi,Ara_Kat,Gunes_Enerjisi,bilinmiyor,yok,yok,yok,yok,yok,var,var,var,var,yok,yok,yok,yok,yok,yok,yok,yok,yok,yok,yok,yok,yok,yok,yok,yok,yok,yok,yok,yok,yok,kademe_5,iyi,normal,iyi,125_150_m2,4_oda,orta_4_7_kat,2_banyo,yok,yok,yok,dusuk,yok,yok,yok,3_4_Milyon_TL_Arasi
Nigde,Merkez,Satilik,16_20_arasi,4,Kombi_Dogalgaz,bilinmiyor,yok,var,var,yok,yok,var,var,var,yok,yok,yok,yok,yok,yok,yok,yok,yok,yok,yok,yok,yok,yok,yok,yok,yok,yok,yok,yok,yok,yok,kademe_5,kotu,kotu,bilinmiyor,150_200_m2,4_oda,orta_4_7_kat,1_banyo,yok,yok,yok,dusuk,yok,yok,yok,2_3_Milyon_TL_Arasi
Hatay,Iskenderun,Satilik,0,3,Kombi,bilinmiyor,yok,var,var,var,yok,var,var,var,var,yok,var,yok,yok,yok,yok,yok,yok,yok,yok,yok,yok,yok,var,yok,yok,yok,yok,yok,yok,yok,kademe_5,bilinmiyor,bilinmiyor,bilinmiyor,75_100_m2,3_oda,orta_4_7_kat,1_banyo,yok,yok,yok,dusuk,dusuk,yuksek,yok,3_4_Milyon_TL_Arasi
Hatay,Iskenderun,Satilik,6_10_arasi,3,Kombi,bilinmiyor,yok,var,var,var,yok,yok,yok,yok,yok,yok,yok,yok,yok,yok,yok,yok,yok,yok,yok,yok,yok,yok,yok,yok,yok,yok,yok,yok,yok,yok,kademe_5,normal,iyi,kotu,125_150_m2,3_oda,orta_4_7_kat,1_banyo,yok,yok,yok,dusuk,yok,yok,yok,3_4_Milyon_TL_Arasi
Tokat,Niksar,Satilik,31_ve_uzeri,bilinmiyor,Kombi_Dogalgaz,bilinmiyor,yok,var,yok,var,yok,yok,yok,yok,yok,yok,yok,yok,yok,var,yok,yok,yok,yok,yok,yok,yok,yok,yok,yok,yok,yok,yok,yok,yok,yok,kademe_5,bilinmiyor,bilinmiyor,bilinmiyor,100_125_m2,4_oda,alcak_1_3_kat,2_banyo,yok,yok,yok,dusuk,yok,orta,yok,4_5_Milyon_TL_Arasi
Hatay,Defne,Satilik,6_10_arasi,6,Yerden_Isitma,bilinmiyor,yok,var,var,var,yok,yok,yok,yok,yok,yok,yok,yok,yok,yok,yok,yok,yok,yok,yok,yok,yok,yok,yok,yok,yok,yok,var,yok,yok,yok,kademe_5,bilinmiyor,bilinmiyor,bilinmiyor,300_m2_ve_ustu,7_oda_ve_ustu,yuksek_8_15_kat,2_banyo,yok,yok,dusuk,orta,yuksek,yok,yok,7_Bucuk_10_Milyon_TL_Arasi
Hatay,Arsuz,Satilik,16_20_arasi,Ara_Kat,Klima,bilinmiyor,yok,var,yok,yok,yok,var,var,var,yok,yok,yok,yok,yok,yok,yok,yok,yok,yok,yok,yok,yok,var,yok,yok,yok,var,yok,yok,yok,yok,kademe_5,normal,kotu,kotu,100_125_m2,3_oda,orta_4_7_kat,bilinmiyor,yok,dusuk,yok,dusuk,orta,orta,yok,3_4_Milyon_TL_Arasi
Hatay,Dortyol,Satilik,21_25_arasi,Bahce,Kombi,bilinmiyor,yok,var,yok,yok,yok,var,var,var,var,yok,var,yok,yok,yok,yok,yok,yok,yok,yok,yok,yok,yok,var,yok,yok,var,yok,yok,yok,yok,kademe_5,bilinmiyor,bilinmiyor,bilinmiyor,300_m2_ve_ustu,3_oda,bilinmiyor,1_banyo,yok,dusuk,dusuk,orta,yuksek,yuksek,yok,7_Bucuk_10_Milyon_TL_Arasi
Tokat,Niksar,Satilik,31_ve_uzeri,bilinmiyor,Soba,bilinmiyor,yok,yok,yok,yok,yok,var,var,var,var,yok,yok,yok,yok,yok,yok,yok,yok,yok,yok,yok,yok,yok,yok,yok,yok,yok,yok,yok,yok,yok,kademe_5,kotu,bilinmiyor,bilinmiyor,300_m2_ve_ustu,7_oda_ve_ustu,orta_4_7_kat,3_banyo_ve_ustu,yok,yok,yok,dusuk,dusuk,yok,yok,3_4_Milyon_TL_Arasi
Hatay,Antakya,Satilik,11_15_arasi,2,Kombi_Dogalgaz,bilinmiyor,yok,var,var,yok,yok,var,var,var,var,yok,yok,var,yok,var,yok,yok,yok,yok,yok,yok,yok,yok,yok,yok,yok,yok,yok,yok,yok,yok,kademe_5,normal,normal,bilinmiyor,150_200_m2,4_oda,orta_4_7_kat,2_banyo,dusuk,dusuk,yok,dusuk,orta,yuksek,yok,2_3_Milyon_TL_Arasi
Kahramanmaras,Onikisubat,Satilik,6_10_arasi,6,Merkezi,bilinmiyor,yok,var,yok,var,yok,var,yok,var,yok,yok,var,yok,yok,yok,yok,yok,yok,yok,var,yok,yok,yok,yok,yok,yok,yok,yok,yok,yok,yok,kademe_5,iyi,normal,bilinmiyor,150_200_m2,5_oda,yuksek_8_15_kat,2_banyo,dusuk,yok,dusuk,dusuk,orta,orta,yok,4_5_Milyon_TL_Arasi
Hatay,Antakya,Satilik,6_10_arasi,2,belirtilmemis_elektrik,bilinmiyor,yok,yok,yok,yok,var,yok,yok,yok,yok,yok,yok,yok,yok,yok,yok,yok,yok,yok,yok,yok,yok,yok,yok,yok,yok,yok,yok,yok,yok,yok,kademe_5,iyi,kotu,bilinmiyor,50_75_m2,3_oda,orta_4_7_kat,1_banyo,yok,yok,yok,dusuk,yok,yok,yok,1_5_Milyon_TL_Alti
Hatay,Payas,Satilik,6_10_arasi,1,Kombi,bilinmiyor,yok,var,var,var,yok,yok,var,var,var,yok,var,var,yok,var,yok,yok,yok,yok,yok,yok,yok,yok,var,yok,yok,yok,yok,yok,yok,yok,kademe_5,normal,kotu,bilinmiyor,150_200_m2,4_oda,orta_4_7_kat,2_banyo,yok,dusuk,dusuk,dusuk,dusuk,yuksek,yok,3_4_Milyon_TL_Arasi
Hatay,Arsuz,Satilik,21_25_arasi,Bahce,Klima,bilinmiyor,yok,var,yok,var,var,var,var,var,var,yok,yok,yok,yok,yok,yok,yok,yok,yok,var,yok,yok,var,var,yok,yok,yok,yok,yok,yok,var,kademe_5,bilinmiyor,kotu,bilinmiyor,200_300_m2,4_oda,orta_4_7_kat,1_banyo,dusuk,yok,dusuk,orta,orta,orta,yok,10_Milyon_TL_Ustu
Hatay,Yayladagi,Satilik,1_5_arasi,bilinmiyor,Soba,bilinmiyor,yok,yok,yok,var,yok,yok,yok,yok,yok,yok,yok,yok,yok,yok,yok,yok,yok,yok,yok,yok,yok,yok,yok,yok,yok,yok,yok,yok,yok,yok,kademe_5,bilinmiyor,kotu,bilinmiyor,150_200_m2,3_oda,alcak_1_3_kat,1_banyo,yok,yok,yok,dusuk,yok,yok,yok,2_3_Milyon_TL_Arasi
Hatay,Arsuz,Satilik,0,Cati,Gunes_Enerjisi,bilinmiyor,yok,yok,yok,yok,yok,yok,yok,yok,yok,yok,yok,yok,yok,yok,yok,yok,yok,yok,yok,yok,yok,yok,yok,yok,yok,yok,yok,yok,yok,yok,kademe_5,kotu,bilinmiyor,kotu,75_100_m2,3_oda,orta_4_7_kat,1_banyo,yok,yok,yok,dusuk,dusuk,yok,yok,4_5_Milyon_TL_Arasi
Tokat,Merkez,Satilik,31_ve_uzeri,3,Kombi,bilinmiyor,yok,var,var,var,yok,yok,yok,yok,yok,yok,yok,yok,yok,yok,yok,yok,yok,yok,yok,yok,yok,yok,yok,yok,yok,yok,yok,yok,yok,yok,kademe_5,bilinmiyor,bilinmiyor,bilinmiyor,125_150_m2,4_oda,orta_4_7_kat,1_banyo,yok,yok,yok,yok,yok,yok,yok,2_3_Milyon_TL_Arasi
Bartin,Merkez,Satilik,0,1,Kombi,bilinmiyor,yok,var,var,var,yok,yok,yok,yok,yok,yok,yok,yok,yok,yok,yok,yok,yok,yok,yok,yok,yok,yok,yok,yok,yok,yok,yok,yok,yok,yok,kademe_5,bilinmiyor,bilinmiyor,bilinmiyor,50_75_m2,2_oda,orta_4_7_kat,1_banyo,yok,yok,yok,yok,yok,yok,yok,3_4_Milyon_TL_Arasi
Cankiri,Cerkes,Satilik,1_5_arasi,3,Kombi,bilinmiyor,yok,var,var,var,yok,var,yok,yok,yok,yok,yok,yok,yok,yok,yok,yok,yok,yok,yok,yok,yok,yok,yok,yok,yok,yok,yok,yok,yok,yok,kademe_5,kotu,bilinmiyor,kotu,50_75_m2,2_oda,orta_4_7_kat,1_banyo,yok,yok,yok,dusuk,yok,yok,yok,2_3_Milyon_TL_Arasi
Hatay,Payas,Satilik,11_15_arasi,2,Klima,bilinmiyor,yok,var,yok,yok,yok,var,var,var,var,yok,var,yok,yok,yok,yok,yok,yok,yok,yok,yok,yok,yok,yok,yok,yok,yok,yok,yok,yok,yok,kademe_5,normal,kotu,kotu,125_150_m2,3_oda,alcak_1_3_kat,2_banyo,yok,yok,yok,dusuk,yok,orta,yok,3_4_Milyon_TL_Arasi
Tokat,Niksar,Satilik,1_5_arasi,Giris,Kombi_Dogalgaz,bilinmiyor,yok,var,yok,yok,yok,yok,var,var,yok,yok,yok,yok,yok,yok,yok,yok,yok,yok,yok,yok,yok,yok,yok,yok,yok,yok,yok,yok,yok,yok,kademe_5,normal,normal,bilinmiyor,125_150_m2,4_oda,orta_4_7_kat,2_banyo,yok,yok,yok,dusuk,yok,yok,yok,4_5_Milyon_TL_Arasi
Bartin,Merkez,Satilik,6_10_arasi,En_Ust_Kat,Kombi_Dogalgaz,bilinmiyor,yok,var,var,var,yok,yok,yok,yok,yok,yok,yok,yok,yok,yok,yok,yok,yok,yok,yok,yok,yok,yok,yok,yok,yok,yok,var,yok,yok,yok,kademe_5,normal,iyi,bilinmiyor,125_150_m2,4_oda,orta_4_7_kat,2_banyo,yok,yok,yok,yok,yok,yok,yok,5_7_Bucuk_Milyon_TL_Arasi
Tokat,Turhal,Satilik,6_10_arasi,4,Kombi,bilinmiyor,yok,var,yok,var,yok,yok,var,var,var,yok,var,var,yok,var,yok,yok,yok,yok,yok,yok,yok,yok,yok,yok,yok,var,yok,yok,var,yok,kademe_5,kotu,bilinmiyor,bilinmiyor,200_300_m2,5_oda,orta_4_7_kat,2_banyo,yok,dusuk,yok,dusuk,yuksek,yuksek,yok,5_7_Bucuk_Milyon_TL_Arasi
Hatay,Iskenderun,Satilik,26_30_arasi,1,isitma_yok,bilinmiyor,yok,var,yok,var,yok,yok,yok,yok,yok,yok,yok,yok,yok,yok,yok,yok,yok,yok,yok,yok,yok,yok,yok,yok,yok,yok,yok,yok,yok,yok,kademe_5,normal,normal,bilinmiyor,125_150_m2,4_oda,orta_4_7_kat,1_banyo,yok,yok,yok,dusuk,yok,dusuk,yok,2_3_Milyon_TL_Arasi
Yozgat,Merkez,Satilik,0,7,Kombi_Dogalgaz,bilinmiyor,yok,yok,var,yok,yok,var,var,var,yok,yok,yok,yok,yok,yok,yok,yok,yok,yok,yok,yok,yok,yok,yok,yok,yok,yok,yok,yok,yok,yok,kademe_5,iyi,bilinmiyor,bilinmiyor,75_100_m2,3_oda,yuksek_8_15_kat,1_banyo,yok,yok,yok,dusuk,yok,yok,yok,2_3_Milyon_TL_Arasi
Tokat,Niksar,Satilik,6_10_arasi,bilinmiyor,Kombi_Dogalgaz,bilinmiyor,yok,var,yok,var,yok,yok,yok,yok,yok,yok,var,yok,yok,var,yok,yok,yok,yok,yok,yok,yok,yok,var,yok,yok,var,var,yok,yok,yok,kademe_5,bilinmiyor,bilinmiyor,bilinmiyor,300_m2_ve_ustu,7_oda_ve_ustu,alcak_1_3_kat,1_banyo,yok,yok,yok,dusuk,yok,yuksek,yok,7_Bucuk_10_Milyon_TL_Arasi
Yozgat,Merkez,Satilik,1_5_arasi,7,Kombi_Dogalgaz,bilinmiyor,yok,yok,yok,yok,var,var,var,var,yok,yok,yok,yok,yok,yok,yok,yok,yok,yok,yok,yok,yok,yok,yok,yok,yok,yok,yok,yok,yok,yok,kademe_5,iyi,normal,bilinmiyor,50_75_m2,2_oda,yuksek_8_15_kat,1_banyo,yok,yok,yok,dusuk,yok,yok,yok,1_5_Milyon_TL_Alti
Hatay,Iskenderun,Satilik,1_5_arasi,6,Kombi,bilinmiyor,yok,yok,var,var,yok,var,var,var,var,yok,yok,yok,yok,yok,yok,yok,yok,yok,yok,yok,yok,yok,yok,yok,yok,yok,yok,yok,yok,yok,kademe_5,bilinmiyor,bilinmiyor,bilinmiyor,150_200_m2,4_oda,yuksek_8_15_kat,2_banyo,yok,yok,yok,dusuk,yok,yok,yok,10_Milyon_TL_Ustu
Yozgat,Merkez,Satilik,1_5_arasi,4,Kombi_Dogalgaz,bilinmiyor,yok,var,var,var,yok,yok,var,yok,var,yok,yok,var,yok,var,yok,yok,yok,var,yok,yok,yok,yok,yok,yok,yok,var,yok,yok,yok,yok,kademe_5,iyi,bilinmiyor,bilinmiyor,125_150_m2,4_oda,orta_4_7_kat,2_banyo,orta,yok,yok,dusuk,yok,yuksek,yok,3_4_Milyon_TL_Arasi
Yozgat,Merkez,Satilik,0,1,Kombi_Dogalgaz,bilinmiyor,yok,yok,yok,var,yok,var,var,yok,yok,yok,var,yok,yok,yok,yok,yok,yok,yok,yok,yok,yok,yok,var,yok,yok,var,yok,yok,yok,yok,kademe_5,iyi,bilinmiyor,bilinmiyor,150_200_m2,5_oda,orta_4_7_kat,2_banyo,yok,dusuk,yok,dusuk,yok,orta,yok,5_7_Bucuk_Milyon_TL_Arasi
Tokat,Merkez,Satilik,1_5_arasi,3,Kombi_Dogalgaz,bilinmiyor,yok,var,var,var,var,yok,var,var,yok,yok,var,yok,yok,var,yok,yok,yok,yok,yok,yok,yok,yok,var,yok,yok,var,yok,yok,yok,yok,kademe_5,bilinmiyor,bilinmiyor,bilinmiyor,50_75_m2,2_oda,orta_4_7_kat,1_banyo,dusuk,yok,yok,dusuk,dusuk,yuksek,yok,2_3_Milyon_TL_Arasi
Tokat,Merkez,Satilik,21_25_arasi,2,Kombi,bilinmiyor,yok,var,var,yok,yok,yok,yok,yok,yok,yok,yok,yok,yok,yok,yok,yok,yok,yok,yok,yok,yok,yok,yok,yok,yok,yok,yok,yok,yok,yok,kademe_5,normal,normal,bilinmiyor,100_125_m2,3_oda,orta_4_7_kat,1_banyo,yok,yok,yok,yok,yok,yok,yok,3_4_Milyon_TL_Arasi
Hatay,Payas,Satilik,1_5_arasi,3,Kombi,bilinmiyor,yok,var,yok,var,yok,var,var,var,yok,yok,var,var,yok,var,yok,yok,yok,yok,yok,yok,yok,yok,var,yok,yok,var,yok,yok,yok,yok,kademe_5,normal,kotu,bilinmiyor,125_150_m2,4_oda,orta_4_7_kat,2_banyo,dusuk,dusuk,dusuk,dusuk,orta,yuksek,yok,3_4_Milyon_TL_Arasi
Hatay,Kirikhan,Satilik,16_20_arasi,3,Kombi,bilinmiyor,yok,var,yok,var,yok,var,var,yok,yok,yok,var,yok,yok,yok,yok,yok,yok,yok,yok,yok,yok,yok,var,yok,yok,var,yok,yok,yok,yok,kademe_5,normal,normal,kotu,75_100_m2,3_oda,orta_4_7_kat,1_banyo,dusuk,yok,dusuk,orta,orta,yuksek,yok,1_5_2_Milyon_TL_Arasi
Hatay,Payas,Satilik,6_10_arasi,5,Kombi,bilinmiyor,yok,var,var,var,yok,var,var,yok,var,yok,yok,yok,yok,yok,yok,yok,yok,yok,yok,yok,yok,yok,yok,yok,yok,yok,yok,yok,yok,yok,kademe_5,iyi,normal,normal,125_150_m2,4_oda,orta_4_7_kat,2_banyo,yok,yok,yok,dusuk,dusuk,orta,yok,3_4_Milyon_TL_Arasi
Yozgat,Merkez,Satilik,0,6,Merkezi,bilinmiyor,yok,var,var,var,yok,yok,yok,yok,yok,yok,var,yok,yok,var,yok,yok,yok,yok,yok,yok,yok,yok,yok,yok,yok,var,yok,yok,yok,yok,kademe_5,iyi,normal,bilinmiyor,125_150_m2,4_oda,orta_4_7_kat,2_banyo,yok,yok,dusuk,dusuk,dusuk,yuksek,yok,4_5_Milyon_TL_Arasi
Hatay,Arsuz,Satilik,0,En_Ust_Kat,Klima,bilinmiyor,yok,var,var,yok,yok,var,var,yok,yok,yok,var,yok,yok,yok,yok,yok,yok,yok,yok,yok,yok,yok,var,yok,yok,yok,var,yok,yok,yok,kademe_5,iyi,bilinmiyor,normal,150_200_m2,4_oda,orta_4_7_kat,2_banyo,yok,yok,yok,dusuk,dusuk,orta,yok,5_7_Bucuk_Milyon_TL_Arasi
Hatay,Arsuz,Satilik,16_20_arasi,Bahce,bilinmiyor,bilinmiyor,yok,var,yok,var,yok,yok,var,yok,var,yok,yok,yok,yok,yok,var,yok,yok,yok,var,yok,yok,yok,var,yok,yok,yok,yok,var,yok,yok,kademe_5,kotu,kotu,bilinmiyor,200_300_m2,4_oda,alcak_1_3_kat,1_banyo,yok,dusuk,dusuk,dusuk,dusuk,orta,yok,7_Bucuk_10_Milyon_TL_Arasi
Tokat,Merkez,Satilik,31_ve_uzeri,2,Kombi_Dogalgaz,bilinmiyor,yok,var,var,yok,yok,yok,var,yok,var,yok,var,yok,yok,var,yok,yok,yok,yok,yok,yok,yok,yok,yok,yok,yok,yok,yok,yok,yok,yok,kademe_5,bilinmiyor,bilinmiyor,bilinmiyor,100_125_m2,2_oda,orta_4_7_kat,1_banyo,yok,yok,yok,orta,orta,orta,yok,3_4_Milyon_TL_Arasi
Hatay,Iskenderun,Satilik,11_15_arasi,4,Kombi,bilinmiyor,yok,var,yok,var,yok,yok,yok,yok,yok,yok,var,yok,yok,yok,yok,yok,yok,yok,yok,yok,yok,yok,yok,yok,yok,yok,yok,yok,yok,yok,kademe_5,iyi,kotu,bilinmiyor,75_100_m2,3_oda,orta_4_7_kat,1_banyo,yok,dusuk,dusuk,dusuk,orta,orta,yok,3_4_Milyon_TL_Arasi
Yozgat,Merkez,Satilik,6_10_arasi,3,Kombi_Dogalgaz,bilinmiyor,yok,yok,var,yok,yok,var,var,var,yok,yok,yok,yok,yok,yok,yok,yok,yok,yok,yok,yok,yok,yok,yok,yok,yok,yok,yok,yok,yok,yok,kademe_5,iyi,bilinmiyor,bilinmiyor,150_200_m2,4_oda,yuksek_8_15_kat,2_banyo,yok,yok,yok,dusuk,yok,yok,yok,4_5_Milyon_TL_Arasi
Hatay,Antakya,Satilik,1_5_arasi,bilinmiyor,Klima,bilinmiyor,yok,var,yok,var,yok,yok,yok,var,yok,yok,var,yok,yok,var,yok,yok,yok,yok,yok,yok,yok,yok,var,yok,yok,var,yok,yok,yok,yok,kademe_5,bilinmiyor,bilinmiyor,bilinmiyor,300_m2_ve_ustu,7_oda_ve_ustu,alcak_1_3_kat,3_banyo_ve_ustu,yok,dusuk,dusuk,orta,orta,yuksek,yok,10_Milyon_TL_Ustu
Hatay,Belen,Satilik,31_ve_uzeri,3,isitma_yok,bilinmiyor,yok,var,yok,yok,yok,yok,yok,yok,yok,yok,yok,yok,yok,yok,yok,yok,yok,yok,yok,yok,yok,yok,yok,yok,yok,yok,yok,yok,yok,yok,kademe_5,kotu,kotu,kotu,125_150_m2,4_oda,orta_4_7_kat,1_banyo,yok,yok,yok,dusuk,yok,yok,yok,1_5_Milyon_TL_Alti
Hatay,Samandag,Satilik,0,Bahce,Klima,bilinmiyor,yok,var,yok,yok,yok,var,var,var,var,yok,var,var,yok,var,yok,yok,yok,yok,yok,yok,yok,yok,var,yok,yok,yok,yok,var,yok,yok,kademe_5,bilinmiyor,bilinmiyor,bilinmiyor,100_125_m2,3_oda,bilinmiyor,2_banyo,dusuk,dusuk,dusuk,dusuk,orta,yuksek,yok,3_4_Milyon_TL_Arasi
Hatay,Antakya,Satilik,0,1,Kombi_Dogalgaz,bilinmiyor,yok,var,var,var,yok,var,var,var,yok,yok,var,yok,yok,var,yok,yok,yok,yok,yok,yok,yok,yok,var,yok,yok,var,yok,yok,yok,yok,kademe_5,bilinmiyor,normal,kotu,50_75_m2,3_oda,orta_4_7_kat,1_banyo,dusuk,dusuk,yok,orta,orta,yuksek,yok,2_3_Milyon_TL_Arasi
Hatay,Kirikhan,Satilik,1_5_arasi,Bahce,Klima,bilinmiyor,yok,var,yok,yok,yok,var,var,var,var,yok,yok,yok,yok,yok,yok,yok,yok,yok,yok,yok,yok,yok,yok,yok,yok,yok,yok,yok,yok,yok,kademe_5,bilinmiyor,bilinmiyor,bilinmiyor,150_200_m2,4_oda,bilinmiyor,1_banyo,yok,yok,yok,dusuk,yok,dusuk,yok,5_7_Bucuk_Milyon_TL_Arasi
Yozgat,Merkez,Satilik,0,Ara_Kat,Merkezi,bilinmiyor,yok,var,var,var,yok,var,var,var,yok,yok,var,yok,yok,var,yok,yok,yok,yok,yok,yok,yok,yok,var,yok,yok,var,yok,yok,yok,yok,kademe_5,normal,bilinmiyor,iyi,125_150_m2,4_oda,orta_4_7_kat,2_banyo,orta,yok,yok,orta,orta,yuksek,yok,5_7_Bucuk_Milyon_TL_Arasi
Hatay,Erzin,Satilik,1_5_arasi,bilinmiyor,Kombi_Dogalgaz,bilinmiyor,yok,var,var,var,yok,yok,var,var,var,yok,var,var,yok,var,yok,yok,yok,yok,yok,yok,yok,yok,var,yok,yok,yok,yok,yok,yok,yok,kademe_5,normal,normal,bilinmiyor,150_200_m2,4_oda,orta_4_7_kat,2_banyo,dusuk,yok,yok,orta,dusuk,yuksek,yok,3_4_Milyon_TL_Arasi
Tokat,Merkez,Satilik,21_25_arasi,1,Kombi,bilinmiyor,yok,yok,var,yok,yok,var,yok,yok,yok,yok,var,yok,yok,yok,yok,yok,yok,yok,yok,yok,yok,yok,yok,yok,yok,var,yok,yok,yok,yok,kademe_5,normal,iyi,bilinmiyor,125_150_m2,4_oda,orta_4_7_kat,1_banyo,yok,yok,yok,dusuk,yuksek,dusuk,yok,3_4_Milyon_TL_Arasi
Hatay,Antakya,Satilik,11_15_arasi,4,Klima,bilinmiyor,yok,yok,yok,yok,var,var,var,var,yok,yok,yok,yok,yok,yok,yok,yok,yok,yok,yok,yok,yok,yok,yok,yok,yok,yok,yok,yok,var,yok,kademe_5,iyi,normal,iyi,50_75_m2,3_oda,alcak_1_3_kat,1_banyo,yok,yok,yok,dusuk,yok,dusuk,yok,1_5_2_Milyon_TL_Arasi
Yozgat,Bogazliyan,Satilik,1_5_arasi,5,Kombi_Dogalgaz,bilinmiyor,yok,yok,var,var,yok,var,yok,yok,yok,yok,yok,yok,yok,yok,yok,yok,yok,yok,yok,yok,yok,yok,yok,yok,yok,yok,yok,yok,yok,yok,kademe_5,normal,iyi,normal,150_200_m2,4_oda,orta_4_7_kat,2_banyo,yok,yok,yok,dusuk,yok,yok,yok,4_5_Milyon_TL_Arasi
Hatay,Iskenderun,Satilik,0,1,Merkezi,bilinmiyor,yok,yok,var,yok,yok,yok,yok,yok,yok,yok,yok,yok,yok,yok,yok,yok,yok,yok,yok,yok,yok,yok,yok,yok,yok,yok,yok,yok,yok,yok,kademe_5,bilinmiyor,iyi,kotu,125_150_m2,4_oda,orta_4_7_kat,1_banyo,yok,yok,yok,dusuk,yok,yok,yok,3_4_Milyon_TL_Arasi
Tokat,Merkez,Satilik,1_5_arasi,2,Merkezi,bilinmiyor,yok,var,var,var,yok,var,var,yok,yok,yok,var,var,yok,var,yok,yok,yok,yok,yok,yok,yok,yok,var,yok,yok,var,yok,yok,yok,yok,kademe_5,bilinmiyor,bilinmiyor,bilinmiyor,125_150_m2,4_oda,yuksek_8_15_kat,2_banyo,orta,yok,yok,dusuk,dusuk,yuksek,yok,4_5_Milyon_TL_Arasi
Hatay,Iskenderun,Satilik,11_15_arasi,1,Kombi,bilinmiyor,yok,var,yok,var,yok,yok,yok,yok,yok,yok,yok,yok,yok,yok,yok,yok,yok,yok,yok,yok,yok,yok,yok,yok,yok,yok,yok,yok,yok,yok,kademe_5,bilinmiyor,normal,kotu,125_150_m2,3_oda,orta_4_7_kat,1_banyo,yok,yok,yok,dusuk,yok,yok,yok,3_4_Milyon_TL_Arasi
Hatay,Iskenderun,Satilik,6_10_arasi,9,Kombi_Dogalgaz,bilinmiyor,yok,yok,yok,yok,yok,var,var,var,var,yok,yok,yok,yok,yok,yok,yok,yok,yok,yok,yok,yok,yok,yok,yok,yok,yok,yok,yok,yok,yok,kademe_5,bilinmiyor,bilinmiyor,kotu,100_125_m2,4_oda,yuksek_8_15_kat,1_banyo,yok,yok,yok,dusuk,yok,yok,yok,3_4_Milyon_TL_Arasi
Hatay,Belen,Satilik,16_20_arasi,Yuksek_Giris,Kombi_Dogalgaz,bilinmiyor,yok,var,yok,var,var,yok,yok,yok,yok,yok,var,yok,yok,yok,yok,yok,yok,yok,yok,yok,yok,yok,var,yok,yok,yok,yok,yok,yok,yok,kademe_5,iyi,normal,bilinmiyor,100_125_m2,4_oda,alcak_1_3_kat,1_banyo,yok,dusuk,yok,orta,dusuk,yuksek,yok,2_3_Milyon_TL_Arasi
Hatay,Yayladagi,Satilik,1_5_arasi,Cati,Kombi,bilinmiyor,yok,var,yok,var,yok,var,yok,yok,var,yok,yok,yok,yok,yok,yok,yok,yok,yok,yok,yok,yok,yok,var,yok,yok,yok,yok,yok,yok,yok,kademe_5,kotu,normal,kotu,125_150_m2,4_oda,orta_4_7_kat,1_banyo,yok,yok,yok,dusuk,yok,yok,yok,1_5_2_Milyon_TL_Arasi
Hatay,Dortyol,Satilik,16_20_arasi,4,Kombi_Dogalgaz,bilinmiyor,yok,var,var,var,yok,var,yok,var,var,yok,var,yok,yok,yok,yok,yok,yok,yok,yok,yok,yok,yok,yok,yok,yok,yok,yok,yok,yok,yok,kademe_5,iyi,normal,bilinmiyor,150_200_m2,4_oda,orta_4_7_kat,2_banyo,dusuk,yok,yok,orta,orta,yuksek,yok,3_4_Milyon_TL_Arasi
Hatay,Arsuz,Satilik,21_25_arasi,bilinmiyor,belirtilmemis_elektrik,bilinmiyor,yok,yok,yok,yok,yok,var,yok,var,yok,yok,var,yok,yok,var,yok,yok,yok,yok,yok,yok,yok,yok,yok,yok,yok,yok,var,yok,yok,yok,kademe_5,iyi,iyi,normal,200_300_m2,4_oda,alcak_1_3_kat,2_banyo,yok,dusuk,yok,orta,yok,orta,yok,10_Milyon_TL_Ustu
Hatay,Arsuz,Satilik,6_10_arasi,Ara_Kat,Klima,bilinmiyor,yok,var,var,yok,yok,yok,var,yok,yok,yok,yok,yok,yok,yok,yok,yok,yok,yok,yok,yok,yok,yok,yok,yok,yok,yok,yok,yok,yok,yok,kademe_5,iyi,normal,kotu,100_125_m2,3_oda,orta_4_7_kat,1_banyo,yok,yok,yok,yok,yok,dusuk,yok,2_3_Milyon_TL_Arasi
Kahramanmaras,Onikisubat,Satilik,6_10_arasi,4,Merkezi,bilinmiyor,yok,var,var,var,yok,yok,var,var,yok,yok,yok,yok,yok,yok,yok,yok,yok,yok,yok,yok,yok,yok,yok,yok,yok,yok,yok,yok,yok,yok,kademe_5,iyi,normal,bilinmiyor,100_125_m2,2_oda,orta_4_7_kat,1_banyo,yok,yok,yok,dusuk,yok,yok,yok,3_4_Milyon_TL_Arasi
Tokat,Merkez,Satilik,6_10_arasi,Zemin,Kombi,bilinmiyor,yok,var,var,var,yok,yok,yok,yok,yok,yok,yok,yok,yok,yok,yok,yok,yok,yok,yok,yok,yok,yok,yok,yok,yok,yok,yok,yok,yok,yok,kademe_5,bilinmiyor,bilinmiyor,bilinmiyor,100_125_m2,3_oda,orta_4_7_kat,2_banyo,yok,yok,yok,dusuk,yok,yok,yok,3_4_Milyon_TL_Arasi
Tokat,Merkez,Satilik,1_5_arasi,5,Kombi,bilinmiyor,yok,var,var,var,yok,yok,yok,var,yok,yok,var,var,yok,var,yok,yok,yok,yok,yok,yok,yok,yok,yok,yok,yok,var,yok,yok,yok,yok,kademe_5,normal,iyi,normal,150_200_m2,4_oda,orta_4_7_kat,2_banyo,yok,yok,dusuk,dusuk,orta,orta,yok,7_Bucuk_10_Milyon_TL_Arasi
Hatay,Belen,Satilik,1_5_arasi,3,Kombi_Dogalgaz,bilinmiyor,yok,var,var,var,yok,var,var,var,var,yok,var,yok,yok,yok,yok,yok,yok,yok,yok,yok,yok,yok,yok,yok,yok,yok,yok,yok,yok,yok,kademe_5,bilinmiyor,bilinmiyor,bilinmiyor,150_200_m2,4_oda,orta_4_7_kat,2_banyo,dusuk,dusuk,yok,dusuk,yok,yuksek,yok,4_5_Milyon_TL_Arasi
Hatay,Antakya,Satilik,1_5_arasi,2,Merkezi,bilinmiyor,yok,var,var,var,yok,yok,var,var,yok,yok,var,yok,yok,yok,yok,yok,yok,yok,yok,yok,yok,yok,var,yok,yok,var,yok,yok,yok,yok,kademe_5,normal,bilinmiyor,normal,125_150_m2,4_oda,orta_4_7_kat,1_banyo,dusuk,dusuk,dusuk,orta,orta,yuksek,yok,3_4_Milyon_TL_Arasi
Tokat,Merkez,Satilik,6_10_arasi,3,Kombi_Dogalgaz,bilinmiyor,yok,var,var,var,yok,yok,yok,var,var,yok,var,var,yok,var,yok,yok,yok,yok,yok,yok,yok,yok,var,yok,yok,var,yok,yok,yok,yok,kademe_5,iyi,bilinmiyor,bilinmiyor,125_150_m2,4_oda,yuksek_8_15_kat,2_banyo,dusuk,yok,yok,orta,orta,yuksek,yok,5_7_Bucuk_Milyon_TL_Arasi
Yozgat,Merkez,Satilik,21_25_arasi,5,Kombi_Dogalgaz,bilinmiyor,yok,yok,yok,var,yok,yok,yok,yok,yok,yok,var,yok,yok,yok,yok,yok,yok,yok,yok,yok,yok,yok,yok,yok,yok,var,yok,yok,yok,yok,kademe_5,normal,normal,bilinmiyor,125_150_m2,3_oda,orta_4_7_kat,1_banyo,yok,yok,yok,yok,dusuk,orta,yok,1_5_2_Milyon_TL_Arasi
Hatay,Defne,Satilik,6_10_arasi,Bahce,Kombi,bilinmiyor,yok,var,yok,var,yok,yok,var,yok,var,yok,yok,yok,yok,yok,yok,yok,yok,yok,yok,yok,yok,yok,yok,yok,yok,yok,yok,yok,yok,yok,kademe_5,normal,iyi,bilinmiyor,100_125_m2,3_oda,orta_4_7_kat,1_banyo,yok,yok,yok,dusuk,dusuk,yok,yok,1_5_Milyon_TL_Alti
Hatay,Dortyol,Satilik,16_20_arasi,Bahce,Soba,bilinmiyor,yok,var,yok,var,yok,var,var,var,var,yok,yok,yok,yok,yok,yok,yok,yok,yok,yok,yok,yok,yok,yok,yok,yok,yok,yok,yok,yok,yok,kademe_5,bilinmiyor,bilinmiyor,bilinmiyor,150_200_m2,4_oda,bilinmiyor,1_banyo,yok,yok,yok,dusuk,yok,yok,yok,1_5_2_Milyon_TL_Arasi
Hatay,Payas,Satilik,6_10_arasi,2,Kombi,bilinmiyor,yok,var,var,var,yok,yok,var,var,var,yok,var,yok,yok,yok,yok,yok,yok,yok,yok,yok,yok,yok,yok,yok,yok,yok,yok,yok,yok,yok,kademe_5,iyi,normal,bilinmiyor,150_200_m2,4_oda,orta_4_7_kat,2_banyo,yok,dusuk,yok,yok,orta,orta,yok,3_4_Milyon_TL_Arasi
Hatay,Antakya,Satilik,11_15_arasi,5,Kombi_Dogalgaz,bilinmiyor,yok,var,var,var,yok,yok,var,var,yok,yok,var,yok,yok,var,yok,yok,yok,yok,yok,yok,yok,yok,var,yok,yok,var,yok,yok,yok,yok,kademe_5,kotu,kotu,normal,75_100_m2,3_oda,yuksek_8_15_kat,1_banyo,dusuk,yok,yok,orta,orta,yuksek,yok,1_5_2_Milyon_TL_Arasi
Hatay,Antakya,Satilik,0,2,Klima,bilinmiyor,yok,var,var,var,yok,yok,yok,var,yok,yok,var,yok,yok,var,yok,yok,yok,yok,yok,yok,yok,yok,var,yok,yok,var,yok,yok,yok,yok,kademe_5,iyi,normal,kotu,75_100_m2,3_oda,orta_4_7_kat,1_banyo,yok,dusuk,yok,orta,yuksek,yuksek,yok,1_5_2_Milyon_TL_Arasi
Kahramanmaras,Onikisubat,Satilik,6_10_arasi,3,Kombi,bilinmiyor,yok,var,var,var,yok,var,yok,var,yok,yok,var,yok,yok,yok,yok,yok,yok,yok,yok,yok,yok,yok,yok,yok,yok,yok,yok,yok,yok,yok,kademe_5,kotu,normal,normal,125_150_m2,4_oda,orta_4_7_kat,1_banyo,yok,yok,dusuk,dusuk,orta,yuksek,yok,3_4_Milyon_TL_Arasi
Tokat,Merkez,Satilik,1_5_arasi,5,Kombi_Dogalgaz,bilinmiyor,yok,yok,var,var,yok,yok,yok,var,yok,yok,var,yok,yok,yok,yok,yok,yok,yok,yok,yok,yok,yok,var,yok,yok,yok,var,yok,yok,yok,kademe_5,normal,normal,bilinmiyor,125_150_m2,5_oda,orta_4_7_kat,1_banyo,yok,yok,yok,dusuk,dusuk,dusuk,yok,5_7_Bucuk_Milyon_TL_Arasi
Hatay,Dortyol,Satilik,11_15_arasi,1,isitma_yok,bilinmiyor,yok,yok,yok,var,yok,yok,yok,yok,yok,yok,yok,yok,yok,yok,yok,yok,yok,yok,yok,yok,yok,yok,yok,yok,yok,yok,yok,yok,yok,yok,kademe_5,kotu,kotu,bilinmiyor,50_75_m2,2_oda,orta_4_7_kat,1_banyo,yok,yok,yok,dusuk,yok,yok,yok,1_5_Milyon_TL_Alti
Erzurum,Palandoken,Satilik,1_5_arasi,2,Merkezi,bilinmiyor,yok,var,var,var,yok,yok,var,var,yok,yok,var,yok,yok,yok,yok,yok,yok,yok,yok,yok,yok,yok,var,yok,yok,yok,yok,yok,yok,yok,kademe_5,bilinmiyor,iyi,normal,150_200_m2,4_oda,orta_4_7_kat,2_banyo,yok,yok,yok,dusuk,orta,dusuk,yok,4_5_Milyon_TL_Arasi
Kahramanmaras,Onikisubat,Satilik,11_15_arasi,1,Merkezi,bilinmiyor,yok,var,yok,var,yok,yok,var,var,var,yok,var,yok,yok,yok,yok,yok,yok,yok,yok,yok,yok,yok,yok,yok,yok,var,yok,yok,yok,yok,kademe_5,normal,normal,bilinmiyor,150_200_m2,5_oda,yuksek_8_15_kat,1_banyo,dusuk,dusuk,yok,dusuk,orta,orta,yok,4_5_Milyon_TL_Arasi
Tokat,Niksar,Satilik,6_10_arasi,7,Kombi_Dogalgaz,bilinmiyor,yok,var,var,var,yok,yok,var,yok,var,yok,yok,var,yok,yok,yok,yok,yok,yok,yok,yok,yok,yok,yok,yok,yok,yok,yok,yok,yok,yok,kademe_5,bilinmiyor,bilinmiyor,bilinmiyor,125_150_m2,4_oda,yuksek_8_15_kat,2_banyo,dusuk,yok,yok,dusuk,yok,yuksek,yok,4_5_Milyon_TL_Arasi
Hatay,Arsuz,Satilik,31_ve_uzeri,1,Klima,bilinmiyor,yok,var,yok,yok,yok,var,yok,yok,yok,yok,var,yok,yok,yok,yok,yok,yok,yok,yok,yok,yok,yok,yok,yok,yok,yok,yok,yok,yok,yok,kademe_5,iyi,bilinmiyor,kotu,100_125_m2,4_oda,orta_4_7_kat,1_banyo,yok,yok,yok,dusuk,yok,yuksek,yok,2_3_Milyon_TL_Arasi
Tokat,Merkez,Satilik,0,Ara_Kat,Kombi_Dogalgaz,bilinmiyor,yok,yok,var,yok,yok,var,var,var,var,yok,var,yok,yok,yok,yok,yok,yok,yok,yok,yok,yok,yok,yok,yok,yok,var,yok,yok,yok,yok,kademe_5,iyi,iyi,normal,50_75_m2,2_oda,orta_4_7_kat,1_banyo,dusuk,yok,yok,dusuk,yok,orta,yok,2_3_Milyon_TL_Arasi
Tokat,Merkez,Satilik,1_5_arasi,Yuksek_Giris,Yerden_Isitma,bilinmiyor,yok,yok,var,var,yok,yok,var,var,yok,yok,var,yok,yok,var,yok,yok,yok,yok,yok,yok,yok,yok,yok,yok,yok,yok,yok,yok,yok,yok,kademe_5,normal,normal,kotu,50_75_m2,2_oda,orta_4_7_kat,1_banyo,yok,yok,dusuk,dusuk,orta,orta,yok,2_3_Milyon_TL_Arasi
Erzurum,Yakutiye,Satilik,0,1,Yerden_Isitma,bilinmiyor,yok,var,var,var,yok,var,yok,var,yok,yok,var,var,yok,var,yok,yok,yok,yok,yok,yok,yok,yok,var,yok,yok,var,yok,yok,yok,yok,kademe_5,normal,iyi,kotu,150_200_m2,4_oda,orta_4_7_kat,2_banyo,dusuk,dusuk,yok,orta,orta,yuksek,yok,5_7_Bucuk_Milyon_TL_Arasi
Nigde,Merkez,Satilik,21_25_arasi,3,Kombi,bilinmiyor,yok,var,var,var,yok,var,yok,var,var,yok,var,yok,yok,yok,yok,yok,yok,yok,yok,yok,yok,yok,yok,yok,yok,var,yok,yok,yok,yok,kademe_5,bilinmiyor,bilinmiyor,bilinmiyor,100_125_m2,3_oda,orta_4_7_kat,1_banyo,dusuk,yok,dusuk,dusuk,yuksek,yok,yok,2_3_Milyon_TL_Arasi
Nigde,Merkez,Satilik,0,2,Merkezi,bilinmiyor,yok,yok,var,yok,yok,var,yok,var,yok,yok,var,yok,yok,yok,yok,yok,yok,yok,yok,yok,yok,yok,yok,yok,yok,var,yok,yok,yok,yok,kademe_5,iyi,bilinmiyor,bilinmiyor,100_125_m2,3_oda,yuksek_8_15_kat,1_banyo,dusuk,dusuk,yok,dusuk,yok,orta,yok,4_5_Milyon_TL_Arasi
Hatay,Arsuz,Satilik,6_10_arasi,3,Klima,bilinmiyor,yok,var,var,yok,yok,yok,yok,yok,yok,yok,yok,yok,yok,yok,yok,yok,yok,yok,yok,yok,yok,var,yok,yok,yok,yok,yok,yok,yok,yok,kademe_5,normal,bilinmiyor,bilinmiyor,150_200_m2,5_oda,orta_4_7_kat,2_banyo,yok,yok,yok,dusuk,yok,dusuk,yok,5_7_Bucuk_Milyon_TL_Arasi
Tokat,Erbaa,Satilik,16_20_arasi,bilinmiyor,Kombi_Dogalgaz,bilinmiyor,yok,var,yok,yok,yok,var,var,var,var,yok,yok,yok,yok,var,yok,yok,yok,yok,yok,yok,yok,var,var,yok,yok,var,yok,yok,var,yok,kademe_5,bilinmiyor,bilinmiyor,bilinmiyor,300_m2_ve_ustu,4_oda,alcak_1_3_kat,bilinmiyor,yok,dusuk,yok,dusuk,yok,orta,yok,3_4_Milyon_TL_Arasi
Hatay,Dortyol,Satilik,0,3,Kombi,bilinmiyor,yok,yok,var,var,yok,yok,yok,var,var,yok,var,yok,yok,yok,yok,yok,yok,yok,yok,yok,yok,yok,var,yok,yok,var,yok,yok,yok,yok,kademe_5,iyi,normal,iyi,50_75_m2,2_oda,orta_4_7_kat,1_banyo,dusuk,dusuk,dusuk,orta,yuksek,yuksek,yok,2_3_Milyon_TL_Arasi
Tokat,Merkez,Satilik,26_30_arasi,En_Ust_Kat,Kombi_Dogalgaz,bilinmiyor,yok,yok,var,yok,yok,yok,yok,yok,yok,yok,yok,yok,yok,yok,yok,yok,yok,yok,yok,yok,yok,yok,yok,yok,yok,yok,yok,yok,var,yok,kademe_5,kotu,kotu,bilinmiyor,200_300_m2,7_oda_ve_ustu,orta_4_7_kat,2_banyo,yok,yok,yok,dusuk,yok,yok,yok,3_4_Milyon_TL_Arasi
Hatay,Iskenderun,Satilik,0,2,Kombi_Dogalgaz,bilinmiyor,yok,var,var,var,yok,var,yok,var,var,yok,var,yok,yok,var,yok,yok,yok,yok,yok,yok,yok,yok,yok,yok,yok,var,yok,yok,yok,yok,kademe_5,bilinmiyor,normal,normal,50_75_m2,2_oda,orta_4_7_kat,1_banyo,yok,yok,yok,orta,orta,yuksek,yok,2_3_Milyon_TL_Arasi
Hatay,Antakya,Satilik,6_10_arasi,1,Kombi_Dogalgaz,bilinmiyor,yok,var,var,yok,var,yok,var,var,yok,yok,var,yok,yok,yok,yok,yok,yok,var,yok,yok,yok,yok,yok,yok,yok,var,yok,yok,yok,yok,kademe_5,kotu,kotu,normal,0_50_m2,2_oda,orta_4_7_kat,1_banyo,dusuk,dusuk,dusuk,dusuk,dusuk,orta,yok,1_5_2_Milyon_TL_Arasi
Hatay,Iskenderun,Satilik,16_20_arasi,4,Klima,bilinmiyor,yok,var,var,var,yok,yok,yok,yok,yok,yok,yok,yok,yok,yok,yok,yok,yok,yok,yok,yok,yok,yok,yok,yok,yok,yok,yok,yok,yok,yok,kademe_5,normal,bilinmiyor,iyi,125_150_m2,4_oda,orta_4_7_kat,1_banyo,yok,yok,yok,dusuk,yok,dusuk,yok,2_3_Milyon_TL_Arasi
Hatay,Antakya,Satilik,6_10_arasi,3,Kombi_Dogalgaz,bilinmiyor,yok,var,var,yok,yok,yok,var,yok,var,yok,var,yok,yok,var,yok,yok,yok,yok,yok,yok,yok,yok,yok,yok,yok,yok,yok,yok,yok,yok,kademe_5,iyi,kotu,normal,125_150_m2,4_oda,orta_4_7_kat,1_banyo,yok,yok,yok,dusuk,dusuk,yuksek,yok,3_4_Milyon_TL_Arasi
Nigde,Merkez,Satilik,1_5_arasi,bilinmiyor,Kombi_Dogalgaz,bilinmiyor,yok,yok,yok,yok,yok,yok,yok,var,yok,yok,yok,yok,yok,yok,yok,yok,yok,yok,yok,yok,yok,yok,yok,yok,yok,yok,yok,var,yok,yok,kademe_5,bilinmiyor,bilinmiyor,bilinmiyor,125_150_m2,4_oda,alcak_1_3_kat,2_banyo,yok,yok,yok,dusuk,yok,yok,yok,5_7_Bucuk_Milyon_TL_Arasi
Bartin,Merkez,Satilik,1_5_arasi,En_Ust_Kat,Kombi_Dogalgaz,bilinmiyor,yok,yok,yok,yok,yok,yok,yok,yok,yok,yok,yok,yok,yok,yok,yok,yok,yok,yok,yok,yok,yok,yok,yok,yok,yok,yok,yok,yok,yok,yok,kademe_5,normal,normal,iyi,75_100_m2,3_oda,orta_4_7_kat,2_banyo,yok,yok,yok,dusuk,yok,yok,yok,4_5_Milyon_TL_Arasi
Tokat,Turhal,Satilik,26_30_arasi,2,Kombi,bilinmiyor,yok,var,yok,yok,yok,yok,yok,yok,yok,yok,yok,yok,yok,yok,yok,yok,yok,yok,yok,yok,yok,yok,yok,yok,yok,var,yok,yok,yok,yok,kademe_5,iyi,iyi,bilinmiyor,100_125_m2,3_oda,orta_4_7_kat,1_banyo,yok,yok,yok,orta,orta,dusuk,yok,2_3_Milyon_TL_Arasi
Hatay,Iskenderun,Satilik,16_20_arasi,2,Klima,bilinmiyor,yok,var,yok,yok,yok,var,var,var,var,yok,yok,yok,yok,yok,yok,yok,yok,yok,yok,yok,yok,yok,yok,yok,yok,yok,yok,yok,yok,yok,kademe_5,normal,normal,kotu,150_200_m2,4_oda,alcak_1_3_kat,1_banyo,yok,yok,yok,dusuk,yok,dusuk,yok,1_5_2_Milyon_TL_Arasi
Hatay,Defne,Satilik,1_5_arasi,bilinmiyor,Yerden_Isitma,bilinmiyor,yok,var,yok,var,yok,yok,yok,var,yok,yok,var,var,yok,var,var,yok,yok,yok,yok,yok,yok,yok,var,yok,yok,var,yok,var,yok,yok,kademe_5,kotu,bilinmiyor,kotu,300_m2_ve_ustu,6_oda,alcak_1_3_kat,2_banyo,dusuk,orta,dusuk,dusuk,yok,yuksek,yok,10_Milyon_TL_Ustu
Nigde,Camardi,Satilik,1_5_arasi,Bahce,Klima,bilinmiyor,yok,var,yok,yok,yok,var,var,var,var,yok,yok,yok,yok,yok,yok,yok,yok,yok,yok,yok,yok,yok,yok,yok,yok,var,yok,yok,yok,yok,kademe_5,normal,bilinmiyor,kotu,300_m2_ve_ustu,4_oda,bilinmiyor,1_banyo,yok,yok,yok,dusuk,yok,dusuk,yok,4_5_Milyon_TL_Arasi
Yozgat,Merkez,Satilik,16_20_arasi,4,Kombi,bilinmiyor,yok,var,yok,var,yok,var,yok,yok,yok,yok,yok,yok,yok,yok,yok,yok,yok,yok,yok,yok,yok,yok,yok,yok,yok,yok,yok,yok,yok,yok,kademe_5,kotu,normal,bilinmiyor,125_150_m2,4_oda,orta_4_7_kat,1_banyo,yok,yok,yok,dusuk,dusuk,dusuk,yok,2_3_Milyon_TL_Arasi
Nigde,Merkez,Satilik,0,5,Kombi_Dogalgaz,bilinmiyor,yok,var,var,var,yok,yok,var,yok,var,yok,var,var,yok,var,yok,yok,yok,yok,yok,yok,yok,yok,yok,yok,yok,yok,yok,yok,yok,yok,kademe_5,normal,iyi,bilinmiyor,75_100_m2,2_oda,orta_4_7_kat,1_banyo,dusuk,dusuk,yok,dusuk,orta,yuksek,yok,4_5_Milyon_TL_Arasi
Tokat,Merkez,Satilik,6_10_arasi,4,Kombi,bilinmiyor,yok,var,var,var,yok,var,var,var,var,yok,var,var,yok,yok,yok,yok,yok,yok,yok,yok,yok,yok,var,yok,yok,var,yok,yok,var,yok,kademe_5,iyi,iyi,bilinmiyor,300_m2_ve_ustu,7_oda_ve_ustu,orta_4_7_kat,3_banyo_ve_ustu,dusuk,dusuk,dusuk,dusuk,yuksek,yuksek,yok,5_7_Bucuk_Milyon_TL_Arasi
Tokat,Merkez,Satilik,16_20_arasi,5,Kombi,bilinmiyor,yok,var,var,var,yok,yok,yok,yok,yok,yok,yok,yok,yok,yok,yok,yok,yok,yok,yok,yok,yok,yok,yok,yok,yok,yok,yok,yok,yok,yok,kademe_5,kotu,kotu,bilinmiyor,200_300_m2,6_oda,orta_4_7_kat,2_banyo,yok,yok,yok,yok,yok,dusuk,yok,5_7_Bucuk_Milyon_TL_Arasi
Bartin,Merkez,Satilik,0,3,Kombi,bilinmiyor,yok,var,var,var,yok,yok,yok,yok,yok,yok,yok,yok,yok,yok,yok,yok,yok,yok,yok,yok,yok,yok,yok,yok,yok,yok,yok,yok,yok,yok,kademe_5,bilinmiyor,bilinmiyor,bilinmiyor,50_75_m2,2_oda,orta_4_7_kat,1_banyo,yok,yok,yok,yok,yok,yok,yok,2_3_Milyon_TL_Arasi
Tokat,Merkez,Satilik,26_30_arasi,5,Kombi,bilinmiyor,yok,var,var,var,yok,yok,yok,yok,yok,yok,yok,yok,yok,yok,yok,yok,yok,yok,yok,yok,yok,yok,yok,yok,yok,yok,yok,yok,yok,yok,kademe_5,iyi,bilinmiyor,normal,125_150_m2,4_oda,orta_4_7_kat,1_banyo,yok,yok,yok,yok,yok,yok,yok,4_5_Milyon_TL_Arasi
Tokat,Merkez,Satilik,21_25_arasi,4,Kombi,bilinmiyor,yok,yok,var,var,yok,yok,yok,yok,yok,yok,yok,yok,yok,yok,yok,yok,yok,yok,yok,yok,yok,yok,yok,yok,yok,yok,yok,yok,yok,yok,kademe_5,normal,normal,kotu,100_125_m2,3_oda,orta_4_7_kat,1_banyo,yok,yok,yok,dusuk,yok,yok,yok,3_4_Milyon_TL_Arasi
Hatay,Antakya,Satilik,6_10_arasi,3,Klima,bilinmiyor,yok,var,yok,yok,var,yok,yok,var,yok,yok,yok,yok,yok,yok,yok,yok,yok,yok,yok,yok,yok,yok,yok,yok,yok,yok,yok,yok,yok,yok,kademe_5,kotu,normal,bilinmiyor,50_75_m2,3_oda,orta_4_7_kat,1_banyo,yok,yok,yok,dusuk,yok,dusuk,yok,1_5_Milyon_TL_Alti
Hatay,Iskenderun,Satilik,0,1,Kombi_Dogalgaz,bilinmiyor,yok,var,var,var,yok,yok,var,var,yok,yok,var,yok,yok,yok,yok,yok,yok,yok,yok,yok,yok,var,yok,yok,yok,var,yok,yok,yok,yok,kademe_5,iyi,iyi,iyi,125_150_m2,4_oda,orta_4_7_kat,1_banyo,yok,yok,yok,dusuk,orta,yuksek,yok,4_5_Milyon_TL_Arasi
Kahramanmaras,Onikisubat,Satilik,6_10_arasi,11,Merkezi,bilinmiyor,yok,var,var,var,yok,var,yok,var,yok,yok,var,yok,yok,yok,yok,yok,yok,yok,yok,yok,yok,yok,yok,yok,yok,yok,yok,yok,yok,yok,kademe_5,bilinmiyor,iyi,normal,150_200_m2,5_oda,yuksek_8_15_kat,2_banyo,yok,yok,yok,dusuk,orta,orta,yok,3_4_Milyon_TL_Arasi
Hatay,Belen,Satilik,0,2,Kombi,bilinmiyor,yok,var,var,var,yok,yok,yok,yok,yok,yok,var,var,yok,yok,yok,yok,yok,yok,yok,yok,yok,yok,var,yok,yok,var,yok,yok,yok,yok,kademe_5,iyi,normal,kotu,100_125_m2,3_oda,orta_4_7_kat,2_banyo,yok,yok,yok,dusuk,dusuk,yuksek,yok,3_4_Milyon_TL_Arasi
Hatay,Kirikhan,Satilik,11_15_arasi,1,Klima,bilinmiyor,yok,yok,yok,var,yok,yok,yok,yok,yok,yok,yok,yok,yok,yok,yok,yok,yok,yok,yok,yok,yok,yok,yok,yok,yok,yok,yok,yok,yok,yok,kademe_5,kotu,iyi,bilinmiyor,300_m2_ve_ustu,5_oda,orta_4_7_kat,1_banyo,yok,yok,yok,dusuk,yok,dusuk,yok,7_Bucuk_10_Milyon_TL_Arasi
Hatay,Antakya,Satilik,6_10_arasi,3,isitma_yok_elektrik,bilinmiyor,yok,var,var,var,yok,yok,var,var,yok,yok,var,yok,yok,yok,yok,yok,yok,yok,yok,yok,yok,yok,var,yok,yok,var,yok,yok,yok,yok,kademe_5,normal,normal,kotu,50_75_m2,2_oda,orta_4_7_kat,1_banyo,yok,yok,yok,orta,orta,orta,yok,1_5_Milyon_TL_Alti
Erzurum,Yakutiye,Satilik,6_10_arasi,En_Ust_Kat,Merkezi,bilinmiyor,yok,var,var,var,yok,yok,var,yok,var,yok,yok,var,yok,var,yok,yok,yok,yok,yok,yok,yok,yok,yok,yok,yok,var,yok,yok,yok,yok,kademe_5,iyi,kotu,bilinmiyor,150_200_m2,4_oda,orta_4_7_kat,2_banyo,dusuk,yok,yok,dusuk,dusuk,yuksek,yok,4_5_Milyon_TL_Arasi
Kahramanmaras,Onikisubat,Satilik,6_10_arasi,2,Merkezi,bilinmiyor,yok,var,var,var,yok,var,yok,var,var,yok,var,var,yok,yok,yok,yok,yok,yok,var,yok,yok,yok,var,var,yok,var,yok,yok,yok,yok,kademe_5,bilinmiyor,normal,bilinmiyor,200_300_m2,5_oda,yuksek_8_15_kat,2_banyo,dusuk,dusuk,yok,dusuk,orta,yuksek,yok,5_7_Bucuk_Milyon_TL_Arasi
Tokat,Merkez,Satilik,1_5_arasi,2,Kombi,bilinmiyor,yok,var,yok,var,yok,yok,var,var,yok,yok,var,yok,yok,yok,yok,yok,yok,yok,yok,yok,yok,yok,yok,yok,yok,yok,yok,yok,yok,yok,kademe_5,normal,kotu,bilinmiyor,200_300_m2,6_oda,alcak_1_3_kat,3_banyo_ve_ustu,yok,yok,yok,yok,yok,yok,yok,7_Bucuk_10_Milyon_TL_Arasi
Hatay,Iskenderun,Satilik,0,4,isitma_yok,bilinmiyor,yok,var,var,yok,yok,var,var,var,var,yok,var,yok,yok,yok,yok,yok,yok,yok,yok,yok,yok,yok,var,yok,yok,var,yok,yok,yok,yok,kademe_5,normal,normal,bilinmiyor,0_50_m2,2_oda,orta_4_7_kat,1_banyo,yok,dusuk,dusuk,orta,orta,yuksek,yok,2_3_Milyon_TL_Arasi
Hatay,Reyhanli,Satilik,26_30_arasi,1,bilinmiyor,bilinmiyor,yok,var,yok,yok,yok,yok,yok,yok,yok,yok,yok,yok,yok,yok,yok,yok,yok,yok,yok,yok,yok,yok,yok,yok,yok,yok,yok,yok,yok,yok,kademe_5,bilinmiyor,bilinmiyor,bilinmiyor,75_100_m2,2_oda,alcak_1_3_kat,1_banyo,yok,yok,yok,dusuk,yok,yok,yok,1_5_Milyon_TL_Alti
Hatay,Dortyol,Satilik,11_15_arasi,Bahce,Soba,bilinmiyor,yok,var,yok,var,yok,var,var,var,var,yok,yok,yok,yok,yok,yok,yok,yok,yok,yok,yok,yok,yok,yok,yok,yok,yok,yok,yok,yok,yok,kademe_5,kotu,bilinmiyor,kotu,300_m2_ve_ustu,4_oda,alcak_1_3_kat,2_banyo,yok,yok,yok,dusuk,yok,dusuk,yok,2_3_Milyon_TL_Arasi
Kahramanmaras,Onikisubat,Satilik,1_5_arasi,8,Merkezi,bilinmiyor,yok,var,var,var,yok,var,yok,var,yok,yok,yok,var,yok,yok,yok,yok,yok,yok,var,yok,yok,yok,var,yok,yok,var,yok,yok,yok,yok,kademe_5,normal,normal,kotu,200_300_m2,5_oda,yuksek_8_15_kat,2_banyo,dusuk,yok,yok,dusuk,yok,yuksek,yok,4_5_Milyon_TL_Arasi
Bartin,Amasra,Satilik,6_10_arasi,1,Kombi,bilinmiyor,yok,yok,var,var,var,var,var,var,var,yok,var,yok,yok,yok,yok,yok,yok,yok,yok,yok,yok,yok,var,yok,yok,var,yok,yok,yok,yok,kademe_5,bilinmiyor,normal,bilinmiyor,50_75_m2,2_oda,orta_4_7_kat,1_banyo,yok,yok,yok,dusuk,orta,yuksek,yok,3_4_Milyon_TL_Arasi
Erzurum,Yakutiye,Satilik,0,3,Merkezi,bilinmiyor,yok,var,yok,var,yok,yok,var,yok,yok,yok,yok,yok,yok,yok,yok,yok,yok,yok,yok,yok,yok,yok,yok,yok,yok,var,yok,yok,yok,yok,kademe_5,iyi,iyi,normal,150_200_m2,4_oda,orta_4_7_kat,2_banyo,dusuk,dusuk,yok,dusuk,dusuk,yuksek,yok,5_7_Bucuk_Milyon_TL_Arasi
Bayburt,Merkez,Satilik,0,2,Kombi_Dogalgaz,bilinmiyor,yok,var,var,yok,yok,yok,var,var,yok,yok,var,yok,yok,var,yok,yok,yok,yok,yok,yok,yok,yok,var,var,yok,yok,yok,yok,yok,yok,kademe_5,iyi,normal,normal,150_200_m2,4_oda,orta_4_7_kat,1_banyo,yok,yok,yok,dusuk,yok,orta,yok,4_5_Milyon_TL_Arasi
Tokat,Merkez,Satilik,1_5_arasi,3,Kombi,bilinmiyor,yok,var,var,var,yok,yok,var,yok,var,yok,yok,yok,yok,var,yok,yok,yok,yok,yok,yok,yok,yok,yok,yok,yok,var,yok,yok,yok,yok,kademe_5,normal,normal,iyi,50_75_m2,2_oda,orta_4_7_kat,1_banyo,yok,yok,dusuk,dusuk,yuksek,yuksek,yok,2_3_Milyon_TL_Arasi
Yozgat,Merkez,Satilik,6_10_arasi,2,Kombi_Dogalgaz,bilinmiyor,yok,var,var,var,yok,yok,yok,yok,yok,yok,var,yok,yok,var,yok,yok,yok,yok,yok,yok,yok,yok,yok,yok,yok,var,yok,yok,yok,yok,kademe_5,normal,normal,bilinmiyor,150_200_m2,5_oda,yuksek_8_15_kat,2_banyo,yok,yok,yok,dusuk,dusuk,yuksek,yok,5_7_Bucuk_Milyon_TL_Arasi
Tokat,Erbaa,Satilik,31_ve_uzeri,Yuksek_Giris,belirtilmemis_dogalgaz,bilinmiyor,yok,var,yok,var,yok,yok,yok,yok,var,yok,yok,yok,yok,yok,yok,yok,yok,yok,yok,yok,yok,yok,yok,yok,yok,var,var,yok,yok,var,kademe_5,kotu,kotu,bilinmiyor,150_200_m2,4_oda,orta_4_7_kat,1_banyo,yok,yok,yok,dusuk,orta,yok,yok,4_5_Milyon_TL_Arasi
Kahramanmaras,Onikisubat,Satilik,21_25_arasi,Ara_Kat,Kombi_Dogalgaz,bilinmiyor,yok,var,yok,yok,yok,yok,yok,var,var,yok,yok,yok,yok,yok,yok,yok,yok,yok,yok,yok,yok,yok,yok,yok,yok,yok,yok,yok,yok,yok,kademe_5,kotu,kotu,kotu,125_150_m2,3_oda,orta_4_7_kat,1_banyo,yok,yok,yok,dusuk,yok,yok,yok,5_7_Bucuk_Milyon_TL_Arasi
Hatay,Defne,Satilik,1_5_arasi,2,Kombi,bilinmiyor,yok,yok,yok,yok,yok,yok,yok,yok,yok,yok,yok,yok,yok,yok,yok,yok,yok,yok,yok,yok,yok,yok,yok,yok,yok,yok,yok,yok,yok,yok,kademe_5,bilinmiyor,normal,bilinmiyor,75_100_m2,3_oda,orta_4_7_kat,1_banyo,yok,yok,yok,dusuk,yok,yok,yok,2_3_Milyon_TL_Arasi
Hatay,Iskenderun,Satilik,0,Ara_Kat,Gunes_Enerjisi,bilinmiyor,yok,var,var,yok,yok,yok,yok,yok,yok,yok,yok,yok,yok,yok,yok,yok,yok,yok,yok,yok,yok,yok,yok,yok,yok,yok,yok,yok,yok,yok,kademe_5,bilinmiyor,iyi,iyi,0_50_m2,2_oda,orta_4_7_kat,1_banyo,yok,yok,yok,dusuk,yok,yok,yok,2_3_Milyon_TL_Arasi
Tokat,Merkez,Satilik,31_ve_uzeri,5,Kombi,bilinmiyor,yok,var,var,var,yok,var,var,yok,yok,yok,yok,yok,yok,yok,yok,yok,yok,yok,yok,yok,yok,yok,yok,yok,yok,yok,yok,yok,yok,yok,kademe_5,normal,normal,bilinmiyor,100_125_m2,3_oda,orta_4_7_kat,1_banyo,yok,yok,dusuk,dusuk,yuksek,yok,yok,3_4_Milyon_TL_Arasi
Kahramanmaras,Onikisubat,Satilik,0,bilinmiyor,isitma_yok,bilinmiyor,yok,yok,yok,yok,yok,yok,yok,yok,yok,yok,yok,yok,yok,yok,yok,yok,yok,yok,yok,yok,yok,yok,yok,yok,yok,yok,yok,yok,yok,yok,kademe_5,normal,kotu,bilinmiyor,200_300_m2,4_oda,alcak_1_3_kat,1_banyo,yok,yok,yok,dusuk,yok,yok,yok,5_7_Bucuk_Milyon_TL_Arasi
Hatay,Iskenderun,Satilik,31_ve_uzeri,Bahce,Klima,bilinmiyor,yok,var,yok,yok,yok,var,var,var,var,yok,yok,yok,yok,yok,yok,yok,yok,yok,yok,yok,yok,yok,yok,yok,yok,var,yok,yok,yok,yok,kademe_5,bilinmiyor,normal,bilinmiyor,100_125_m2,3_oda,bilinmiyor,1_banyo,yok,yok,yok,dusuk,orta,dusuk,yok,3_4_Milyon_TL_Arasi
Nigde,Merkez,Satilik,1_5_arasi,bilinmiyor,Kombi_Dogalgaz,bilinmiyor,yok,var,yok,var,yok,var,var,var,var,yok,var,var,yok,var,yok,yok,yok,yok,yok,yok,yok,yok,yok,yok,yok,yok,yok,yok,yok,yok,kademe_5,iyi,normal,bilinmiyor,300_m2_ve_ustu,7_oda_ve_ustu,alcak_1_3_kat,3_banyo_ve_ustu,yok,orta,yok,dusuk,yok,yuksek,yok,10_Milyon_TL_Ustu
Erzurum,Palandoken,Satilik,21_25_arasi,5,Merkezi,bilinmiyor,yok,yok,yok,yok,yok,yok,yok,var,var,yok,yok,yok,yok,yok,yok,yok,yok,yok,yok,yok,yok,yok,yok,yok,yok,yok,yok,yok,yok,yok,kademe_5,iyi,normal,kotu,125_150_m2,4_oda,orta_4_7_kat,1_banyo,yok,yok,yok,dusuk,yok,yok,yok,2_3_Milyon_TL_Arasi
Hatay,Belen,Satilik,0,2,Kombi,bilinmiyor,yok,var,var,var,yok,var,var,var,var,yok,var,var,yok,yok,yok,yok,yok,yok,yok,yok,yok,yok,var,yok,yok,yok,yok,yok,yok,yok,kademe_5,normal,bilinmiyor,bilinmiyor,100_125_m2,4_oda,orta_4_7_kat,2_banyo,yok,yok,yok,dusuk,dusuk,orta,yok,3_4_Milyon_TL_Arasi
Hatay,Iskenderun,Satilik,6_10_arasi,3,Kombi_Dogalgaz,bilinmiyor,yok,var,var,yok,yok,var,yok,var,var,yok,yok,yok,yok,yok,yok,yok,yok,yok,yok,yok,yok,yok,yok,yok,yok,yok,yok,yok,yok,yok,kademe_5,normal,normal,bilinmiyor,125_150_m2,4_oda,orta_4_7_kat,1_banyo,yok,yok,yok,dusuk,yok,yok,yok,2_3_Milyon_TL_Arasi
Tokat,Merkez,Satilik,21_25_arasi,4,Kombi_Dogalgaz,bilinmiyor,yok,yok,var,yok,yok,var,var,var,var,yok,yok,yok,yok,yok,yok,yok,yok,yok,yok,yok,yok,yok,yok,yok,yok,yok,yok,yok,yok,yok,kademe_5,kotu,kotu,bilinmiyor,100_125_m2,4_oda,orta_4_7_kat,1_banyo,yok,yok,yok,yok,yok,yok,yok,3_4_Milyon_TL_Arasi
Hatay,Iskenderun,Satilik,6_10_arasi,Cati,Kombi_Dogalgaz,bilinmiyor,yok,var,var,var,yok,yok,var,yok,var,yok,var,var,yok,var,yok,yok,yok,yok,yok,yok,yok,var,yok,yok,yok,var,var,yok,yok,yok,kademe_5,bilinmiyor,normal,bilinmiyor,150_200_m2,3_oda,orta_4_7_kat,2_banyo,dusuk,dusuk,yok,orta,dusuk,yuksek,yok,3_4_Milyon_TL_Arasi
Erzurum,Palandoken,Satilik,0,2,Merkezi,bilinmiyor,yok,var,var,var,yok,yok,var,yok,var,yok,var,var,yok,var,yok,yok,yok,yok,yok,yok,yok,yok,yok,yok,yok,var,yok,yok,yok,yok,kademe_5,iyi,iyi,iyi,150_200_m2,5_oda,yuksek_8_15_kat,2_banyo,dusuk,dusuk,yok,dusuk,orta,yuksek,yok,5_7_Bucuk_Milyon_TL_Arasi
Hatay,Arsuz,Satilik,26_30_arasi,bilinmiyor,Kombi_Dogalgaz,bilinmiyor,yok,var,yok,yok,yok,yok,yok,yok,yok,yok,yok,yok,yok,yok,yok,yok,yok,yok,yok,yok,yok,yok,yok,yok,yok,yok,yok,yok,yok,var,kademe_5,kotu,bilinmiyor,bilinmiyor,200_300_m2,5_oda,orta_4_7_kat,2_banyo,yok,yok,yok,dusuk,yok,yok,yok,10_Milyon_TL_Ustu
Hatay,Arsuz,Satilik,0,Giris,Kombi_Dogalgaz,bilinmiyor,yok,yok,yok,yok,yok,yok,yok,var,yok,yok,yok,yok,yok,yok,yok,yok,yok,yok,yok,yok,yok,yok,yok,yok,yok,yok,yok,yok,yok,yok,kademe_5,kotu,bilinmiyor,bilinmiyor,125_150_m2,4_oda,orta_4_7_kat,1_banyo,yok,yok,yok,dusuk,yok,yok,yok,5_7_Bucuk_Milyon_TL_Arasi
Hatay,Iskenderun,Satilik,1_5_arasi,4,Klima,bilinmiyor,yok,yok,yok,yok,yok,yok,yok,yok,yok,yok,yok,yok,yok,yok,yok,yok,yok,yok,yok,yok,yok,yok,yok,yok,yok,yok,var,yok,yok,yok,kademe_5,bilinmiyor,normal,bilinmiyor,100_125_m2,3_oda,orta_4_7_kat,1_banyo,yok,yok,yok,dusuk,yok,dusuk,yok,3_4_Milyon_TL_Arasi
Nigde,Merkez,Satilik,21_25_arasi,3,Merkezi,bilinmiyor,yok,var,var,var,yok,yok,var,yok,var,yok,var,yok,yok,var,yok,yok,yok,yok,yok,yok,yok,yok,yok,yok,yok,var,yok,yok,yok,yok,kademe_5,iyi,normal,bilinmiyor,200_300_m2,5_oda,orta_4_7_kat,1_banyo,yok,dusuk,dusuk,dusuk,yok,yuksek,yok,5_7_Bucuk_Milyon_TL_Arasi
Erzurum,Palandoken,Satilik,16_20_arasi,5,Kombi,bilinmiyor,yok,var,yok,var,yok,var,yok,var,yok,yok,var,var,yok,var,yok,yok,yok,yok,yok,yok,yok,yok,var,yok,yok,var,yok,yok,yok,yok,kademe_5,bilinmiyor,normal,bilinmiyor,150_200_m2,5_oda,yuksek_8_15_kat,2_banyo,dusuk,dusuk,yok,orta,orta,yuksek,yok,3_4_Milyon_TL_Arasi
Hatay,Antakya,Satilik,1_5_arasi,Ara_Kat,Kombi_Dogalgaz,bilinmiyor,yok,yok,var,var,yok,yok,var,var,yok,yok,var,yok,yok,yok,yok,yok,yok,yok,yok,yok,yok,yok,yok,yok,yok,var,yok,yok,yok,yok,kademe_5,bilinmiyor,bilinmiyor,bilinmiyor,75_100_m2,3_oda,orta_4_7_kat,1_banyo,dusuk,yok,dusuk,orta,orta,orta,yok,2_3_Milyon_TL_Arasi
Nigde,Merkez,Satilik,11_15_arasi,1,Merkezi,bilinmiyor,yok,var,var,var,yok,yok,var,yok,var,yok,var,yok,yok,var,yok,yok,yok,yok,yok,yok,yok,yok,yok,yok,yok,var,yok,yok,yok,yok,kademe_5,kotu,kotu,kotu,150_200_m2,4_oda,yuksek_8_15_kat,1_banyo,dusuk,yok,dusuk,orta,orta,yuksek,yok,3_4_Milyon_TL_Arasi
Tokat,Merkez,Satilik,26_30_arasi,En_Ust_Kat,Kombi_Dogalgaz,bilinmiyor,yok,var,yok,var,yok,var,var,var,yok,yok,var,yok,yok,var,yok,yok,yok,yok,yok,yok,yok,yok,yok,yok,yok,var,yok,yok,yok,yok,kademe_5,iyi,kotu,bilinmiyor,100_125_m2,4_oda,orta_4_7_kat,1_banyo,yok,yok,yok,dusuk,orta,orta,yok,3_4_Milyon_TL_Arasi
Hatay,Arsuz,Satilik,21_25_arasi,2,Klima,bilinmiyor,yok,var,yok,var,yok,var,var,var,var,yok,var,yok,yok,yok,yok,yok,yok,yok,yok,yok,yok,yok,var,yok,yok,yok,yok,yok,yok,yok,kademe_5,normal,iyi,kotu,125_150_m2,4_oda,orta_4_7_kat,1_banyo,yok,yok,yok,dusuk,orta,yuksek,yok,2_3_Milyon_TL_Arasi
Hatay,Iskenderun,Satilik,31_ve_uzeri,1,belirtilmemis_elektrik,bilinmiyor,yok,var,var,yok,yok,var,yok,var,yok,yok,yok,yok,yok,yok,yok,yok,yok,yok,yok,yok,yok,yok,var,yok,yok,var,yok,yok,yok,yok,kademe_5,kotu,kotu,bilinmiyor,125_150_m2,4_oda,orta_4_7_kat,1_banyo,yok,yok,yok,orta,orta,yok,yok,2_3_Milyon_TL_Arasi
Hatay,Iskenderun,Satilik,0,2,Klima,bilinmiyor,yok,yok,var,var,yok,var,var,yok,yok,yok,yok,yok,yok,yok,yok,yok,yok,yok,yok,yok,yok,yok,yok,yok,yok,yok,yok,yok,yok,yok,kademe_5,bilinmiyor,normal,normal,50_75_m2,2_oda,orta_4_7_kat,1_banyo,yok,yok,yok,dusuk,yok,dusuk,yok,2_3_Milyon_TL_Arasi
Bartin,Merkez,Satilik,11_15_arasi,Yuksek_Giris,Kombi_Dogalgaz,bilinmiyor,yok,var,var,var,var,yok,yok,yok,yok,yok,var,yok,yok,var,yok,yok,yok,yok,yok,yok,yok,yok,var,yok,yok,yok,yok,yok,yok,yok,kademe_5,bilinmiyor,normal,bilinmiyor,75_100_m2,3_oda,orta_4_7_kat,1_banyo,yok,yok,yok,dusuk,yok,dusuk,yok,3_4_Milyon_TL_Arasi
Hatay,Iskenderun,Satilik,0,6,Kombi_Dogalgaz,bilinmiyor,yok,yok,yok,yok,yok,yok,yok,yok,yok,yok,yok,yok,yok,yok,yok,yok,yok,yok,yok,yok,yok,yok,yok,yok,yok,yok,yok,yok,yok,yok,kademe_5,bilinmiyor,bilinmiyor,bilinmiyor,200_300_m2,4_oda,yuksek_8_15_kat,2_banyo,yok,yok,yok,dusuk,yok,yok,yok,10_Milyon_TL_Ustu
Hatay,Dortyol,Satilik,11_15_arasi,2,Kombi,bilinmiyor,yok,var,var,yok,yok,yok,yok,yok,yok,yok,yok,yok,yok,yok,yok,yok,yok,yok,yok,yok,yok,yok,yok,yok,yok,yok,yok,yok,yok,yok,kademe_5,normal,normal,bilinmiyor,150_200_m2,5_oda,orta_4_7_kat,2_banyo,yok,yok,yok,dusuk,yok,yok,yok,4_5_Milyon_TL_Arasi
Tokat,Niksar,Satilik,6_10_arasi,Giris,Kombi_Dogalgaz,bilinmiyor,yok,var,var,var,yok,yok,yok,var,yok,yok,yok,yok,yok,yok,yok,yok,yok,yok,yok,yok,yok,yok,yok,yok,yok,yok,yok,yok,yok,yok,kademe_5,bilinmiyor,bilinmiyor,bilinmiyor,125_150_m2,4_oda,orta_4_7_kat,bilinmiyor,yok,yok,yok,dusuk,orta,dusuk,yok,3_4_Milyon_TL_Arasi
Hatay,Antakya,Satilik,0,Bahce,Yerden_Isitma,bilinmiyor,yok,var,yok,var,yok,var,var,var,var,yok,var,var,yok,yok,yok,yok,yok,yok,yok,yok,yok,yok,var,yok,yok,var,var,yok,yok,yok,kademe_5,iyi,bilinmiyor,bilinmiyor,200_300_m2,6_oda,alcak_1_3_kat,2_banyo,yok,dusuk,dusuk,orta,dusuk,orta,yok,10_Milyon_TL_Ustu
Tokat,Merkez,Satilik,11_15_arasi,Giris,Kombi,bilinmiyor,yok,var,var,var,yok,var,var,var,var,yok,var,yok,yok,var,yok,yok,yok,yok,yok,yok,yok,yok,yok,yok,yok,var,yok,yok,yok,yok,kademe_5,kotu,normal,bilinmiyor,125_150_m2,4_oda,orta_4_7_kat,1_banyo,yok,yok,yok,dusuk,orta,yuksek,yok,4_5_Milyon_TL_Arasi
Hatay,Iskenderun,Satilik,0,En_Ust_Kat,belirtilmemis_elektrik,bilinmiyor,yok,var,var,yok,yok,var,var,var,var,yok,var,yok,yok,var,yok,yok,yok,yok,yok,yok,yok,yok,var,yok,yok,var,var,yok,yok,yok,kademe_5,normal,bilinmiyor,bilinmiyor,150_200_m2,4_oda,orta_4_7_kat,1_banyo,yok,yok,yok,orta,yok,orta,yok,4_5_Milyon_TL_Arasi
Bartin,Merkez,Satilik,0,bilinmiyor,Kombi_Dogalgaz,bilinmiyor,yok,yok,yok,var,yok,yok,yok,yok,yok,yok,yok,yok,yok,yok,yok,yok,yok,yok,yok,yok,yok,yok,yok,yok,yok,yok,yok,yok,yok,yok,kademe_5,bilinmiyor,normal,bilinmiyor,200_300_m2,6_oda,alcak_1_3_kat,3_banyo_ve_ustu,yok,yok,yok,yok,yok,yok,yok,10_Milyon_TL_Ustu
Hatay,Erzin,Satilik,6_10_arasi,2,Kombi,bilinmiyor,yok,var,var,var,yok,yok,var,var,yok,yok,var,yok,yok,var,yok,yok,yok,yok,yok,yok,yok,yok,var,yok,yok,var,yok,yok,yok,yok,kademe_5,kotu,normal,normal,125_150_m2,4_oda,orta_4_7_kat,1_banyo,dusuk,dusuk,dusuk,dusuk,yuksek,yuksek,yok,3_4_Milyon_TL_Arasi
Hatay,Iskenderun,Satilik,11_15_arasi,3,Gunes_Enerjisi,bilinmiyor,yok,yok,yok,yok,yok,yok,yok,yok,yok,yok,yok,yok,yok,yok,yok,yok,yok,yok,yok,yok,yok,yok,yok,yok,yok,yok,yok,yok,yok,yok,kademe_5,iyi,kotu,kotu,125_150_m2,4_oda,orta_4_7_kat,1_banyo,yok,yok,yok,dusuk,yok,yok,yok,2_3_Milyon_TL_Arasi
Tokat,Niksar,Satilik,1_5_arasi,Ara_Kat,Kombi_Dogalgaz,bilinmiyor,yok,var,var,var,var,yok,yok,var,yok,yok,var,yok,yok,var,yok,yok,yok,yok,yok,yok,yok,yok,yok,yok,yok,var,yok,yok,yok,yok,kademe_5,normal,iyi,normal,150_200_m2,5_oda,yuksek_8_15_kat,2_banyo,orta,yok,yok,orta,orta,yuksek,yok,5_7_Bucuk_Milyon_TL_Arasi
Hatay,Arsuz,Satilik,0,3,Kombi,bilinmiyor,yok,var,var,var,yok,yok,yok,yok,yok,yok,yok,yok,yok,yok,yok,yok,yok,yok,yok,yok,yok,yok,yok,yok,yok,yok,yok,yok,yok,yok,kademe_5,bilinmiyor,bilinmiyor,bilinmiyor,150_200_m2,4_oda,orta_4_7_kat,2_banyo,yok,yok,yok,dusuk,yok,yok,yok,4_5_Milyon_TL_Arasi
Tokat,Erbaa,Satilik,0,2,Yerden_Isitma,bilinmiyor,yok,var,yok,yok,yok,yok,yok,yok,yok,yok,yok,yok,yok,yok,yok,yok,yok,yok,yok,yok,yok,yok,yok,yok,yok,yok,yok,yok,yok,yok,kademe_5,kotu,normal,kotu,125_150_m2,4_oda,orta_4_7_kat,2_banyo,yok,yok,yok,dusuk,yok,yok,yok,5_7_Bucuk_Milyon_TL_Arasi
Tokat,Merkez,Satilik,6_10_arasi,5,Kombi_Dogalgaz,bilinmiyor,yok,var,var,var,yok,var,var,var,var,yok,var,yok,yok,var,yok,yok,yok,var,yok,yok,yok,yok,yok,yok,yok,var,var,yok,yok,yok,kademe_5,bilinmiyor,normal,bilinmiyor,200_300_m2,6_oda,orta_4_7_kat,2_banyo,dusuk,dusuk,dusuk,dusuk,dusuk,yuksek,yok,4_5_Milyon_TL_Arasi
Hatay,Antakya,Satilik,11_15_arasi,2,Klima,bilinmiyor,yok,var,yok,var,var,yok,var,yok,yok,yok,var,yok,yok,yok,yok,yok,yok,yok,yok,yok,yok,yok,var,yok,yok,var,yok,yok,yok,yok,kademe_5,kotu,kotu,bilinmiyor,50_75_m2,3_oda,orta_4_7_kat,1_banyo,dusuk,yok,dusuk,orta,yuksek,yuksek,yok,1_5_Milyon_TL_Alti
Hatay,Iskenderun,Satilik,0,2,Kombi,bilinmiyor,yok,var,var,var,yok,var,var,var,yok,yok,var,yok,yok,yok,yok,yok,yok,yok,yok,yok,yok,yok,yok,yok,yok,yok,yok,yok,yok,yok,kademe_5,bilinmiyor,bilinmiyor,kotu,125_150_m2,4_oda,orta_4_7_kat,1_banyo,yok,yok,yok,dusuk,yok,orta,yok,4_5_Milyon_TL_Arasi
Nigde,Merkez,Satilik,21_25_arasi,3,Merkezi,bilinmiyor,yok,yok,var,yok,yok,var,var,yok,yok,yok,yok,yok,yok,yok,yok,yok,yok,yok,yok,yok,yok,yok,yok,yok,yok,yok,yok,yok,yok,yok,kademe_5,normal,normal,bilinmiyor,150_200_m2,4_oda,yuksek_8_15_kat,1_banyo,yok,yok,yok,dusuk,yok,yok,yok,3_4_Milyon_TL_Arasi
Hatay,Antakya,Satilik,11_15_arasi,Zemin,Merkezi,bilinmiyor,yok,var,yok,yok,yok,var,yok,yok,yok,yok,yok,yok,yok,yok,yok,yok,yok,yok,yok,yok,yok,yok,yok,yok,yok,yok,yok,yok,yok,yok,kademe_5,normal,kotu,kotu,100_125_m2,3_oda,yuksek_8_15_kat,1_banyo,yok,yok,yok,dusuk,yok,yok,yok,1_5_2_Milyon_TL_Arasi
Hatay,Iskenderun,Satilik,0,5,Kombi,bilinmiyor,yok,var,yok,yok,yok,var,var,var,var,yok,yok,yok,yok,yok,yok,yok,yok,yok,yok,yok,yok,yok,yok,yok,yok,yok,var,yok,yok,yok,kademe_5,iyi,bilinmiyor,iyi,300_m2_ve_ustu,5_oda,orta_4_7_kat,2_banyo,yok,yok,yok,dusuk,yok,yok,yok,7_Bucuk_10_Milyon_TL_Arasi
Tokat,Merkez,Satilik,0,bilinmiyor,Kombi_Dogalgaz,bilinmiyor,yok,yok,yok,var,yok,var,var,var,var,yok,yok,yok,yok,yok,yok,yok,yok,yok,yok,yok,yok,yok,yok,yok,yok,yok,yok,yok,yok,yok,kademe_5,bilinmiyor,iyi,bilinmiyor,100_125_m2,3_oda,alcak_1_3_kat,1_banyo,yok,yok,yok,dusuk,yok,yok,yok,7_Bucuk_10_Milyon_TL_Arasi
Kahramanmaras,Dulkadiroglu,Satilik,0,1,Kombi,bilinmiyor,yok,var,var,var,yok,var,var,var,yok,yok,var,yok,yok,yok,yok,yok,yok,yok,yok,yok,yok,yok,yok,yok,yok,var,yok,yok,yok,yok,kademe_5,bilinmiyor,bilinmiyor,bilinmiyor,75_100_m2,3_oda,orta_4_7_kat,1_banyo,yok,yok,yok,dusuk,dusuk,orta,yok,2_3_Milyon_TL_Arasi
Hatay,Dortyol,Satilik,6_10_arasi,2,Kombi,bilinmiyor,yok,var,yok,var,yok,var,yok,yok,var,yok,var,var,yok,var,yok,yok,yok,yok,yok,yok,yok,yok,yok,yok,yok,var,yok,yok,yok,yok,kademe_5,normal,normal,iyi,150_200_m2,4_oda,orta_4_7_kat,2_banyo,dusuk,yok,dusuk,dusuk,orta,yuksek,yok,4_5_Milyon_TL_Arasi
Hatay,Antakya,Satilik,0,Zemin,Yerden_Isitma,bilinmiyor,yok,var,var,var,yok,yok,yok,yok,yok,yok,yok,yok,yok,yok,yok,yok,yok,yok,yok,yok,yok,yok,yok,yok,yok,yok,yok,yok,yok,yok,kademe_5,bilinmiyor,normal,normal,50_75_m2,3_oda,orta_4_7_kat,1_banyo,yok,yok,yok,dusuk,yok,dusuk,yok,2_3_Milyon_TL_Arasi
Kahramanmaras,Onikisubat,Satilik,0,Ara_Kat,Merkezi,bilinmiyor,yok,var,var,var,yok,yok,var,yok,yok,yok,var,var,yok,var,yok,yok,yok,yok,yok,yok,yok,yok,var,yok,yok,var,yok,yok,yok,yok,kademe_5,normal,normal,bilinmiyor,150_200_m2,5_oda,yuksek_8_15_kat,2_banyo,dusuk,dusuk,dusuk,dusuk,yok,yuksek,yok,4_5_Milyon_TL_Arasi
Hatay,Defne,Satilik,6_10_arasi,3,Kombi,bilinmiyor,yok,var,yok,var,yok,yok,yok,yok,yok,yok,yok,yok,yok,yok,yok,yok,yok,yok,yok,yok,yok,yok,yok,yok,yok,yok,yok,yok,yok,yok,kademe_5,normal,normal,bilinmiyor,150_200_m2,4_oda,orta_4_7_kat,1_banyo,yok,yok,yok,dusuk,dusuk,yok,yok,2_3_Milyon_TL_Arasi
Hatay,Defne,Satilik,1_5_arasi,2,Kombi,bilinmiyor,yok,var,var,var,yok,yok,yok,yok,yok,yok,yok,yok,yok,yok,yok,yok,yok,yok,yok,yok,yok,yok,yok,yok,yok,yok,yok,yok,yok,yok,kademe_5,kotu,normal,bilinmiyor,150_200_m2,4_oda,orta_4_7_kat,1_banyo,yok,yok,yok,dusuk,yok,yok,yok,2_3_Milyon_TL_Arasi
Osmaniye,Merkez,Satilik,1_5_arasi,2,Kombi,bilinmiyor,yok,var,var,var,yok,yok,yok,yok,yok,yok,yok,yok,yok,yok,yok,yok,yok,yok,yok,yok,yok,yok,yok,yok,yok,var,yok,yok,yok,yok,kademe_5,iyi,bilinmiyor,iyi,150_200_m2,4_oda,yuksek_8_15_kat,2_banyo,yok,yok,yok,dusuk,yok,yok,yok,4_5_Milyon_TL_Arasi
Hatay,Payas,Satilik,6_10_arasi,4,Kombi,bilinmiyor,yok,var,var,var,yok,var,var,var,var,yok,var,var,yok,var,yok,yok,yok,yok,yok,yok,yok,yok,var,yok,yok,var,yok,yok,yok,yok,kademe_5,bilinmiyor,iyi,bilinmiyor,125_150_m2,4_oda,orta_4_7_kat,2_banyo,dusuk,dusuk,dusuk,dusuk,orta,yuksek,yok,3_4_Milyon_TL_Arasi
Nigde,Bor,Satilik,6_10_arasi,3,Merkezi,bilinmiyor,yok,yok,yok,yok,yok,var,yok,var,yok,yok,yok,yok,yok,yok,yok,yok,yok,yok,yok,yok,yok,yok,yok,yok,yok,yok,yok,yok,yok,yok,kademe_5,normal,bilinmiyor,bilinmiyor,150_200_m2,4_oda,orta_4_7_kat,2_banyo,yok,yok,yok,dusuk,yok,yok,yok,4_5_Milyon_TL_Arasi
Yozgat,Merkez,Satilik,0,2,Kombi_Dogalgaz,bilinmiyor,yok,var,var,yok,yok,yok,yok,yok,yok,yok,yok,yok,yok,yok,yok,yok,yok,yok,yok,yok,yok,yok,yok,yok,yok,yok,yok,yok,yok,yok,kademe_5,normal,normal,bilinmiyor,50_75_m2,2_oda,orta_4_7_kat,1_banyo,yok,yok,yok,dusuk,yok,orta,yok,1_5_2_Milyon_TL_Arasi
Hatay,Antakya,Satilik,1_5_arasi,Ara_Kat,isitma_yok_elektrik,bilinmiyor,yok,var,var,var,yok,yok,var,yok,yok,yok,var,yok,yok,yok,yok,yok,yok,var,yok,yok,yok,yok,yok,yok,yok,var,yok,yok,yok,yok,kademe_5,normal,normal,normal,0_50_m2,2_oda,orta_4_7_kat,1_banyo,yok,dusuk,yok,dusuk,orta,orta,yok,1_5_Milyon_TL_Alti
Kahramanmaras,Dulkadiroglu,Satilik,6_10_arasi,4,Kombi_Dogalgaz,bilinmiyor,yok,var,var,var,yok,var,var,var,var,yok,var,var,yok,yok,yok,yok,yok,yok,yok,yok,yok,yok,yok,yok,yok,var,var,yok,yok,yok,kademe_5,normal,normal,bilinmiyor,200_300_m2,6_oda,orta_4_7_kat,3_banyo_ve_ustu,dusuk,dusuk,yok,yok,orta,yuksek,yok,4_5_Milyon_TL_Arasi
Osmaniye,Merkez,Satilik,1_5_arasi,5,Kombi_Dogalgaz,bilinmiyor,yok,yok,yok,yok,var,var,var,var,var,yok,yok,yok,yok,yok,yok,yok,yok,yok,yok,yok,yok,yok,yok,yok,yok,yok,yok,yok,yok,yok,kademe_5,iyi,normal,normal,150_200_m2,5_oda,orta_4_7_kat,2_banyo,yok,yok,yok,dusuk,orta,yok,yok,3_4_Milyon_TL_Arasi
Hatay,Arsuz,Satilik,11_15_arasi,1,Klima,bilinmiyor,yok,var,yok,yok,yok,var,yok,var,yok,yok,var,yok,yok,yok,yok,yok,yok,yok,yok,yok,yok,yok,var,yok,yok,var,yok,yok,yok,yok,kademe_5,bilinmiyor,iyi,normal,75_100_m2,3_oda,orta_4_7_kat,1_banyo,yok,yok,yok,dusuk,yok,orta,yok,2_3_Milyon_TL_Arasi
Tokat,Turhal,Satilik,16_20_arasi,2,Kombi_Dogalgaz,bilinmiyor,yok,var,yok,yok,var,yok,yok,var,yok,yok,yok,yok,yok,yok,yok,yok,yok,yok,yok,yok,yok,yok,yok,yok,yok,yok,yok,yok,yok,yok,kademe_5,normal,kotu,bilinmiyor,50_75_m2,3_oda,orta_4_7_kat,1_banyo,yok,yok,yok,dusuk,yok,dusuk,yok,1_5_2_Milyon_TL_Arasi
Tokat,Merkez,Satilik,0,2,Kombi,bilinmiyor,yok,yok,var,var,yok,var,var,yok,yok,yok,var,yok,yok,yok,yok,yok,yok,yok,yok,yok,yok,yok,yok,yok,yok,var,yok,yok,yok,yok,kademe_5,kotu,normal,normal,0_50_m2,2_oda,orta_4_7_kat,1_banyo,yok,yok,dusuk,dusuk,yuksek,orta,yok,2_3_Milyon_TL_Arasi
Nigde,Merkez,Satilik,1_5_arasi,2,Kombi_Dogalgaz,bilinmiyor,yok,var,var,var,yok,yok,var,yok,var,yok,var,yok,yok,var,yok,yok,yok,var,yok,yok,yok,yok,var,yok,yok,var,yok,yok,yok,yok,kademe_5,bilinmiyor,iyi,bilinmiyor,75_100_m2,3_oda,yuksek_8_15_kat,1_banyo,dusuk,dusuk,yok,orta,orta,yuksek,yok,5_7_Bucuk_Milyon_TL_Arasi
Nigde,Merkez,Satilik,26_30_arasi,4,Kombi_Dogalgaz,bilinmiyor,yok,var,var,var,yok,var,var,var,yok,yok,var,var,yok,yok,yok,yok,yok,yok,yok,yok,yok,yok,yok,yok,yok,var,yok,yok,yok,yok,kademe_5,iyi,iyi,bilinmiyor,150_200_m2,5_oda,orta_4_7_kat,1_banyo,dusuk,yok,yok,orta,orta,orta,yok,4_5_Milyon_TL_Arasi
Hatay,Antakya,Satilik,6_10_arasi,Zemin,Merkezi,bilinmiyor,yok,yok,var,yok,var,yok,yok,var,yok,yok,yok,yok,yok,yok,yok,yok,yok,yok,yok,yok,yok,yok,yok,yok,yok,yok,yok,yok,yok,yok,kademe_5,iyi,normal,kotu,50_75_m2,3_oda,orta_4_7_kat,1_banyo,yok,yok,yok,dusuk,yok,yok,yok,1_5_Milyon_TL_Alti
Nigde,Merkez,Satilik,11_15_arasi,4,Merkezi,bilinmiyor,yok,var,var,var,yok,var,yok,var,yok,yok,var,var,yok,var,yok,yok,yok,yok,yok,yok,yok,yok,yok,yok,yok,var,yok,yok,yok,yok,kademe_5,kotu,iyi,bilinmiyor,150_200_m2,4_oda,orta_4_7_kat,2_banyo,dusuk,dusuk,dusuk,dusuk,yuksek,yuksek,yok,4_5_Milyon_TL_Arasi
Kahramanmaras,Dulkadiroglu,Satilik,6_10_arasi,1,bilinmiyor,bilinmiyor,yok,var,var,var,yok,yok,yok,yok,yok,yok,yok,yok,yok,yok,yok,yok,yok,yok,yok,yok,yok,yok,yok,yok,yok,yok,yok,yok,yok,yok,kademe_5,bilinmiyor,bilinmiyor,bilinmiyor,125_150_m2,3_oda,alcak_1_3_kat,2_banyo,yok,yok,yok,dusuk,yok,yok,yok,2_3_Milyon_TL_Arasi
Osmaniye,Merkez,Satilik,6_10_arasi,Yuksek_Giris,Kombi_Dogalgaz,bilinmiyor,yok,var,yok,yok,yok,var,var,var,var,yok,yok,yok,yok,yok,yok,yok,yok,yok,yok,yok,yok,yok,yok,yok,yok,yok,yok,yok,yok,yok,kademe_5,kotu,bilinmiyor,kotu,125_150_m2,4_oda,orta_4_7_kat,1_banyo,yok,yok,yok,orta,orta,yok,yok,2_3_Milyon_TL_Arasi
Tokat,Niksar,Satilik,11_15_arasi,1,Kombi_Dogalgaz,bilinmiyor,yok,yok,yok,yok,yok,yok,yok,var,yok,yok,yok,yok,yok,yok,yok,yok,yok,yok,yok,yok,yok,yok,yok,yok,yok,yok,yok,yok,yok,yok,kademe_5,kotu,normal,kotu,100_125_m2,3_oda,alcak_1_3_kat,1_banyo,yok,yok,yok,dusuk,orta,yok,yok,1_5_Milyon_TL_Alti
Tokat,Pazar,Satilik,21_25_arasi,3,Kombi_Dogalgaz,bilinmiyor,yok,yok,var,yok,yok,var,var,var,yok,yok,yok,yok,yok,yok,yok,yok,yok,yok,yok,yok,yok,yok,yok,yok,yok,yok,yok,yok,yok,yok,kademe_5,normal,bilinmiyor,bilinmiyor,125_150_m2,4_oda,orta_4_7_kat,1_banyo,yok,yok,yok,dusuk,yok,yok,yok,2_3_Milyon_TL_Arasi
Hatay,Iskenderun,Satilik,21_25_arasi,8,Kombi_Dogalgaz,bilinmiyor,yok,var,var,yok,yok,var,yok,var,var,yok,var,yok,yok,yok,yok,yok,yok,yok,yok,yok,yok,yok,yok,yok,yok,var,yok,yok,yok,yok,kademe_5,iyi,normal,bilinmiyor,150_200_m2,4_oda,yuksek_8_15_kat,2_banyo,yok,yok,yok,dusuk,dusuk,orta,yok,3_4_Milyon_TL_Arasi
Hatay,Iskenderun,Satilik,0,5,Kombi,bilinmiyor,yok,yok,yok,yok,yok,yok,yok,yok,yok,yok,yok,yok,yok,yok,yok,yok,yok,yok,yok,yok,yok,yok,yok,yok,yok,yok,yok,yok,yok,yok,kademe_5,bilinmiyor,bilinmiyor,bilinmiyor,100_125_m2,3_oda,orta_4_7_kat,3_banyo_ve_ustu,yok,yok,yok,dusuk,yok,yok,yok,3_4_Milyon_TL_Arasi
Tokat,Merkez,Satilik,0,4,Kombi,bilinmiyor,yok,var,var,var,yok,var,yok,var,var,yok,var,yok,yok,yok,yok,yok,yok,yok,yok,yok,yok,yok,var,yok,yok,var,yok,yok,yok,yok,kademe_5,iyi,bilinmiyor,bilinmiyor,150_200_m2,5_oda,orta_4_7_kat,2_banyo,yok,yok,yok,dusuk,dusuk,orta,yok,7_Bucuk_10_Milyon_TL_Arasi
Tokat,Merkez,Satilik,0,3,Kombi,bilinmiyor,yok,var,var,yok,yok,var,var,var,yok,yok,yok,yok,yok,yok,yok,yok,yok,yok,yok,yok,yok,yok,yok,yok,yok,yok,yok,yok,yok,yok,kademe_5,normal,normal,kotu,75_100_m2,2_oda,orta_4_7_kat,1_banyo,yok,yok,yok,dusuk,yok,yok,yok,3_4_Milyon_TL_Arasi
Hatay,Defne,Satilik,11_15_arasi,2,Kombi,bilinmiyor,yok,var,var,var,yok,yok,var,yok,var,yok,var,var,yok,yok,yok,yok,yok,yok,yok,yok,yok,yok,yok,yok,yok,var,yok,yok,yok,yok,kademe_5,iyi,normal,bilinmiyor,150_200_m2,4_oda,orta_4_7_kat,2_banyo,dusuk,dusuk,yok,dusuk,dusuk,yuksek,yok,3_4_Milyon_TL_Arasi
Kahramanmaras,Onikisubat,Satilik,6_10_arasi,1,Kombi_Dogalgaz,bilinmiyor,yok,yok,var,yok,yok,var,var,var,yok,yok,yok,yok,yok,yok,yok,yok,yok,yok,yok,yok,yok,yok,yok,yok,yok,yok,yok,yok,yok,yok,kademe_5,iyi,normal,iyi,75_100_m2,3_oda,orta_4_7_kat,2_banyo,yok,yok,yok,dusuk,yok,yok,yok,2_3_Milyon_TL_Arasi
Hatay,Dortyol,Satilik,1_5_arasi,2,Klima,bilinmiyor,yok,var,yok,var,yok,var,var,var,var,yok,var,var,yok,yok,yok,yok,yok,yok,yok,yok,yok,yok,var,yok,yok,yok,yok,yok,yok,yok,kademe_5,iyi,iyi,iyi,200_300_m2,5_oda,orta_4_7_kat,2_banyo,yok,dusuk,yok,dusuk,dusuk,yuksek,yok,4_5_Milyon_TL_Arasi
Erzurum,Palandoken,Satilik,1_5_arasi,5,Merkezi,bilinmiyor,yok,var,var,var,yok,var,yok,yok,var,yok,var,var,yok,var,yok,yok,yok,yok,yok,yok,yok,yok,yok,yok,yok,var,yok,yok,yok,yok,kademe_5,iyi,normal,bilinmiyor,150_200_m2,4_oda,yuksek_8_15_kat,2_banyo,dusuk,dusuk,yok,dusuk,orta,yuksek,yok,5_7_Bucuk_Milyon_TL_Arasi
Hatay,Arsuz,Satilik,6_10_arasi,3,Klima,bilinmiyor,yok,var,var,yok,yok,yok,yok,yok,yok,yok,yok,yok,yok,yok,yok,yok,yok,yok,yok,yok,yok,yok,yok,yok,yok,yok,yok,yok,yok,yok,kademe_5,bilinmiyor,normal,bilinmiyor,150_200_m2,5_oda,orta_4_7_kat,2_banyo,yok,yok,yok,dusuk,yok,dusuk,yok,5_7_Bucuk_Milyon_TL_Arasi
Hatay,Iskenderun,Satilik,11_15_arasi,Ara_Kat,Kombi_Dogalgaz,bilinmiyor,yok,var,var,var,yok,var,var,var,var,yok,var,yok,yok,var,yok,yok,yok,yok,var,yok,yok,var,yok,yok,yok,var,yok,yok,yok,yok,kademe_5,bilinmiyor,normal,kotu,125_150_m2,4_oda,orta_4_7_kat,2_banyo,orta,yok,orta,orta,yuksek,yuksek,yok,3_4_Milyon_TL_Arasi
Hatay,Iskenderun,Satilik,0,2,isitma_yok,bilinmiyor,yok,var,var,var,yok,yok,yok,var,var,yok,var,yok,yok,var,yok,yok,yok,yok,yok,yok,yok,yok,yok,yok,yok,yok,yok,yok,yok,yok,kademe_5,kotu,bilinmiyor,kotu,100_125_m2,3_oda,orta_4_7_kat,2_banyo,yok,yok,yok,orta,orta,orta,yok,3_4_Milyon_TL_Arasi
Tokat,Merkez,Satilik,1_5_arasi,4,Kombi_Dogalgaz,bilinmiyor,yok,var,var,var,yok,var,yok,var,yok,yok,var,yok,yok,var,yok,yok,yok,yok,yok,yok,yok,yok,var,yok,yok,var,var,yok,yok,yok,kademe_5,bilinmiyor,bilinmiyor,bilinmiyor,150_200_m2,5_oda,orta_4_7_kat,1_banyo,dusuk,yok,yok,dusuk,orta,yuksek,yok,5_7_Bucuk_Milyon_TL_Arasi
Nigde,Merkez,Satilik,0,3,Merkezi,bilinmiyor,yok,yok,var,yok,yok,yok,var,yok,yok,yok,yok,yok,yok,yok,yok,yok,yok,yok,yok,yok,yok,yok,yok,yok,yok,yok,yok,yok,yok,yok,kademe_5,iyi,normal,kotu,100_125_m2,3_oda,yuksek_8_15_kat,1_banyo,yok,yok,yok,dusuk,yok,yok,yok,5_7_Bucuk_Milyon_TL_Arasi
Hatay,Antakya,Satilik,6_10_arasi,1,Kombi,bilinmiyor,yok,var,var,var,yok,yok,yok,yok,yok,yok,yok,yok,yok,yok,yok,yok,yok,yok,yok,yok,yok,yok,yok,yok,yok,yok,yok,yok,yok,yok,kademe_5,normal,iyi,normal,150_200_m2,4_oda,orta_4_7_kat,2_banyo,yok,yok,yok,dusuk,yok,yok,yok,2_3_Milyon_TL_Arasi
Hatay,Arsuz,Satilik,0,2,belirtilmemis_elektrik,bilinmiyor,yok,yok,yok,yok,yok,var,var,var,var,yok,yok,yok,yok,yok,yok,yok,yok,yok,yok,yok,yok,yok,yok,yok,yok,yok,var,yok,yok,yok,kademe_5,bilinmiyor,bilinmiyor,bilinmiyor,150_200_m2,4_oda,alcak_1_3_kat,1_banyo,yok,yok,yok,dusuk,yok,yok,yok,4_5_Milyon_TL_Arasi
Hatay,Iskenderun,Satilik,6_10_arasi,4,Klima,bilinmiyor,yok,var,var,yok,yok,yok,var,yok,var,yok,var,yok,yok,var,yok,yok,yok,yok,yok,yok,yok,yok,yok,yok,yok,var,yok,yok,yok,yok,kademe_5,kotu,normal,kotu,100_125_m2,3_oda,orta_4_7_kat,1_banyo,yok,yok,yok,orta,orta,yuksek,yok,2_3_Milyon_TL_Arasi
Tokat,Merkez,Satilik,21_25_arasi,Bodrum,Kombi_Dogalgaz,bilinmiyor,yok,yok,yok,yok,yok,var,yok,var,yok,yok,var,yok,yok,yok,yok,yok,yok,yok,yok,yok,yok,yok,yok,yok,yok,yok,yok,yok,yok,yok,kademe_5,kotu,kotu,kotu,50_75_m2,3_oda,orta_4_7_kat,1_banyo,yok,yok,yok,dusuk,orta,orta,yok,1_5_Milyon_TL_Alti
Hatay,Iskenderun,Satilik,1_5_arasi,3,Kombi_Dogalgaz,bilinmiyor,yok,var,var,var,yok,var,yok,var,var,yok,var,var,yok,yok,yok,yok,yok,yok,yok,yok,yok,var,yok,yok,yok,var,yok,yok,yok,yok,kademe_5,normal,bilinmiyor,normal,150_200_m2,4_oda,yuksek_8_15_kat,2_banyo,dusuk,yok,yok,dusuk,yok,yuksek,yok,4_5_Milyon_TL_Arasi
Hatay,Arsuz,Satilik,21_25_arasi,bilinmiyor,Gunes_Enerjisi,bilinmiyor,yok,var,yok,var,yok,var,var,var,var,yok,yok,yok,yok,yok,yok,yok,yok,yok,var,yok,yok,var,yok,yok,yok,yok,var,yok,yok,yok,kademe_5,kotu,kotu,bilinmiyor,125_150_m2,5_oda,alcak_1_3_kat,1_banyo,yok,yok,yok,dusuk,yok,orta,yok,7_Bucuk_10_Milyon_TL_Arasi
Bartin,Merkez,Satilik,11_15_arasi,2,Kombi,bilinmiyor,yok,var,var,var,yok,var,yok,var,yok,yok,var,yok,yok,var,yok,yok,yok,yok,yok,yok,yok,yok,var,yok,yok,var,yok,yok,yok,yok,kademe_5,iyi,bilinmiyor,bilinmiyor,75_100_m2,3_oda,orta_4_7_kat,1_banyo,yok,yok,dusuk,dusuk,yuksek,dusuk,yok,2_3_Milyon_TL_Arasi
Hatay,Belen,Satilik,11_15_arasi,3,Kombi_Dogalgaz,bilinmiyor,yok,var,var,var,yok,yok,yok,var,var,yok,var,yok,yok,yok,yok,yok,yok,yok,yok,yok,yok,yok,yok,yok,yok,yok,yok,yok,yok,yok,kademe_5,kotu,normal,kotu,75_100_m2,3_oda,orta_4_7_kat,1_banyo,yok,yok,yok,dusuk,yok,orta,yok,1_5_2_Milyon_TL_Arasi
Bartin,Merkez,Satilik,0,Ara_Kat,Kombi_Dogalgaz,bilinmiyor,yok,var,var,var,yok,yok,yok,yok,yok,yok,yok,yok,yok,yok,yok,yok,yok,yok,yok,yok,yok,yok,yok,yok,yok,yok,yok,yok,yok,yok,kademe_5,kotu,normal,kotu,50_75_m2,2_oda,orta_4_7_kat,1_banyo,yok,yok,yok,yok,yok,yok,yok,2_3_Milyon_TL_Arasi
Kahramanmaras,Onikisubat,Satilik,1_5_arasi,1,Kombi,bilinmiyor,yok,var,var,var,yok,yok,var,var,var,yok,var,var,yok,yok,yok,yok,yok,yok,yok,yok,yok,yok,yok,yok,yok,var,yok,yok,yok,yok,kademe_5,normal,iyi,bilinmiyor,150_200_m2,5_oda,yuksek_8_15_kat,2_banyo,dusuk,dusuk,dusuk,dusuk,yuksek,yuksek,yok,5_7_Bucuk_Milyon_TL_Arasi
Hatay,Iskenderun,Satilik,11_15_arasi,En_Ust_Kat,Klima,bilinmiyor,yok,var,var,yok,yok,yok,yok,var,yok,yok,var,var,yok,yok,yok,yok,yok,yok,yok,yok,yok,var,yok,yok,yok,yok,yok,yok,yok,yok,kademe_5,normal,iyi,kotu,150_200_m2,4_oda,orta_4_7_kat,2_banyo,yok,yok,yok,dusuk,dusuk,yuksek,yok,3_4_Milyon_TL_Arasi
Hatay,Dortyol,Satilik,1_5_arasi,1,Kombi,bilinmiyor,yok,var,var,yok,yok,yok,yok,yok,yok,yok,yok,yok,yok,yok,yok,yok,yok,yok,yok,yok,yok,yok,yok,yok,yok,yok,yok,yok,yok,yok,kademe_5,iyi,normal,bilinmiyor,150_200_m2,4_oda,orta_4_7_kat,2_banyo,yok,yok,yok,dusuk,yok,yok,yok,4_5_Milyon_TL_Arasi
Kahramanmaras,Onikisubat,Satilik,6_10_arasi,Ara_Kat,Kombi_Dogalgaz,bilinmiyor,yok,var,var,var,yok,yok,var,var,var,yok,var,var,yok,yok,yok,yok,yok,yok,yok,yok,yok,yok,var,yok,yok,var,yok,yok,yok,yok,kademe_5,iyi,normal,normal,125_150_m2,4_oda,yuksek_8_15_kat,2_banyo,orta,dusuk,yok,orta,dusuk,yuksek,yok,3_4_Milyon_TL_Arasi
Hatay,Belen,Satilik,6_10_arasi,4,Kombi_Dogalgaz,bilinmiyor,yok,var,var,yok,yok,var,var,var,var,yok,yok,var,yok,yok,yok,yok,yok,yok,yok,yok,yok,yok,var,yok,yok,yok,yok,yok,yok,yok,kademe_5,bilinmiyor,normal,bilinmiyor,150_200_m2,4_oda,orta_4_7_kat,2_banyo,yok,yok,yok,dusuk,yok,yuksek,yok,3_4_Milyon_TL_Arasi
Hatay,Antakya,Satilik,1_5_arasi,Ara_Kat,Kombi_Dogalgaz,bilinmiyor,yok,var,var,var,yok,var,var,yok,var,yok,var,yok,yok,var,yok,yok,yok,yok,yok,yok,yok,yok,yok,yok,yok,var,yok,yok,yok,yok,kademe_5,bilinmiyor,bilinmiyor,normal,150_200_m2,4_oda,orta_4_7_kat,2_banyo,dusuk,dusuk,yok,dusuk,dusuk,yuksek,yok,5_7_Bucuk_Milyon_TL_Arasi
Nigde,Bor,Satilik,31_ve_uzeri,4,Kombi,bilinmiyor,yok,var,var,var,yok,yok,var,yok,var,yok,yok,yok,yok,yok,yok,yok,yok,yok,yok,yok,yok,yok,yok,yok,yok,var,yok,yok,yok,yok,kademe_5,normal,normal,normal,125_150_m2,4_oda,orta_4_7_kat,1_banyo,yok,yok,yok,dusuk,orta,yok,yok,1_5_2_Milyon_TL_Arasi
Tokat,Niksar,Satilik,11_15_arasi,4,Kombi_Dogalgaz,bilinmiyor,yok,var,var,var,yok,yok,var,yok,yok,yok,var,var,yok,yok,yok,yok,yok,yok,yok,yok,yok,yok,yok,yok,yok,var,yok,yok,yok,yok,kademe_5,iyi,bilinmiyor,normal,150_200_m2,5_oda,orta_4_7_kat,2_banyo,dusuk,yok,yok,dusuk,orta,orta,yok,4_5_Milyon_TL_Arasi
Yozgat,Merkez,Satilik,11_15_arasi,5,Merkezi,bilinmiyor,yok,var,var,var,yok,var,var,var,yok,yok,var,var,yok,yok,yok,yok,yok,yok,yok,yok,yok,yok,var,yok,yok,var,yok,yok,yok,yok,kademe_5,kotu,normal,normal,125_150_m2,4_oda,yuksek_8_15_kat,1_banyo,yok,yok,yok,dusuk,dusuk,orta,yok,2_3_Milyon_TL_Arasi
Kahramanmaras,Onikisubat,Satilik,16_20_arasi,6,Kombi_Dogalgaz,bilinmiyor,yok,var,var,var,yok,var,yok,yok,var,yok,var,yok,yok,yok,yok,yok,yok,yok,yok,yok,yok,yok,var,yok,yok,var,yok,yok,yok,yok,kademe_5,normal,normal,bilinmiyor,100_125_m2,3_oda,orta_4_7_kat,1_banyo,dusuk,yok,yok,dusuk,yok,yuksek,yok,3_4_Milyon_TL_Arasi
Erzurum,Yakutiye,Satilik,31_ve_uzeri,5,Kombi,bilinmiyor,yok,var,var,var,yok,var,var,yok,yok,yok,var,yok,yok,var,yok,yok,yok,yok,yok,yok,yok,yok,yok,yok,yok,var,yok,yok,yok,yok,kademe_5,normal,iyi,bilinmiyor,150_200_m2,4_oda,yuksek_8_15_kat,1_banyo,yok,yok,dusuk,orta,orta,orta,yok,2_3_Milyon_TL_Arasi
Hatay,Arsuz,Satilik,0,4,Gunes_Enerjisi,bilinmiyor,yok,var,var,yok,yok,yok,yok,yok,yok,yok,var,var,yok,yok,yok,yok,yok,yok,yok,yok,yok,yok,yok,yok,yok,yok,yok,yok,yok,yok,kademe_5,normal,normal,kotu,125_150_m2,4_oda,orta_4_7_kat,2_banyo,dusuk,yok,yok,dusuk,yok,orta,yok,3_4_Milyon_TL_Arasi
Hatay,Belen,Satilik,11_15_arasi,En_Ust_Kat,Kombi_Dogalgaz,bilinmiyor,yok,var,var,var,yok,var,var,var,var,yok,var,var,yok,yok,yok,yok,yok,yok,yok,yok,yok,var,yok,yok,yok,var,var,yok,yok,yok,kademe_5,normal,bilinmiyor,normal,200_300_m2,5_oda,orta_4_7_kat,3_banyo_ve_ustu,dusuk,dusuk,yok,dusuk,orta,yuksek,yok,5_7_Bucuk_Milyon_TL_Arasi
Hatay,Defne,Satilik,1_5_arasi,En_Ust_Kat,Kombi_Dogalgaz,bilinmiyor,yok,var,var,var,yok,var,var,var,var,yok,var,yok,yok,yok,yok,yok,yok,yok,yok,yok,yok,yok,yok,yok,yok,var,var,yok,var,yok,kademe_5,bilinmiyor,kotu,bilinmiyor,300_m2_ve_ustu,5_oda,yuksek_8_15_kat,2_banyo,dusuk,orta,dusuk,orta,orta,yuksek,yok,10_Milyon_TL_Ustu
Hatay,Iskenderun,Satilik,1_5_arasi,3,Klima,bilinmiyor,yok,var,var,yok,var,yok,yok,var,yok,yok,yok,yok,yok,yok,yok,yok,yok,yok,yok,yok,yok,yok,var,yok,yok,var,yok,yok,yok,yok,kademe_5,normal,normal,bilinmiyor,0_50_m2,2_oda,orta_4_7_kat,1_banyo,yok,yok,yok,dusuk,yok,orta,yok,1_5_2_Milyon_TL_Arasi
Hatay,Belen,Satilik,6_10_arasi,Giris,Klima,bilinmiyor,yok,var,var,var,yok,var,var,yok,yok,yok,var,var,yok,yok,yok,yok,yok,yok,yok,yok,yok,yok,yok,yok,yok,var,yok,yok,yok,yok,kademe_5,normal,normal,kotu,100_125_m2,3_oda,orta_4_7_kat,2_banyo,yok,dusuk,yok,orta,yok,yuksek,yok,2_3_Milyon_TL_Arasi
Hatay,Iskenderun,Satilik,11_15_arasi,1,Kombi,bilinmiyor,yok,var,var,var,yok,var,var,var,var,yok,var,var,yok,yok,yok,yok,yok,yok,yok,yok,yok,yok,var,yok,yok,var,yok,yok,yok,yok,kademe_5,normal,normal,kotu,150_200_m2,4_oda,yuksek_8_15_kat,2_banyo,dusuk,dusuk,yok,orta,orta,yuksek,yok,4_5_Milyon_TL_Arasi
Yozgat,Merkez,Satilik,11_15_arasi,3,Kombi_Dogalgaz,bilinmiyor,yok,yok,yok,yok,yok,yok,yok,yok,yok,yok,yok,yok,yok,yok,yok,yok,yok,yok,yok,yok,yok,yok,yok,yok,yok,yok,var,yok,yok,yok,kademe_5,bilinmiyor,bilinmiyor,bilinmiyor,200_300_m2,5_oda,orta_4_7_kat,1_banyo,yok,yok,yok,dusuk,yok,yok,yok,4_5_Milyon_TL_Arasi
Yozgat,Merkez,Satilik,11_15_arasi,3,Kombi,bilinmiyor,yok,yok,yok,var,var,yok,var,yok,var,yok,yok,yok,yok,yok,yok,yok,yok,yok,yok,yok,yok,yok,yok,yok,yok,yok,yok,yok,yok,yok,kademe_5,normal,normal,normal,50_75_m2,2_oda,orta_4_7_kat,1_banyo,yok,yok,yok,dusuk,yok,dusuk,yok,1_5_Milyon_TL_Alti
Erzurum,Yakutiye,Satilik,11_15_arasi,3,Kombi_Dogalgaz,bilinmiyor,yok,yok,var,yok,yok,var,yok,var,yok,yok,yok,yok,yok,yok,yok,yok,yok,yok,yok,yok,yok,yok,yok,yok,yok,yok,yok,yok,yok,yok,kademe_5,iyi,normal,bilinmiyor,125_150_m2,4_oda,orta_4_7_kat,2_banyo,yok,yok,yok,dusuk,dusuk,yok,yok,2_3_Milyon_TL_Arasi
Hatay,Iskenderun,Satilik,0,4,Merkezi,bilinmiyor,yok,var,var,yok,yok,var,var,var,var,yok,var,var,yok,yok,yok,yok,yok,yok,yok,yok,yok,yok,var,yok,yok,var,yok,yok,yok,yok,kademe_5,iyi,iyi,bilinmiyor,100_125_m2,4_oda,orta_4_7_kat,2_banyo,dusuk,yok,yok,orta,orta,yuksek,dusuk,5_7_Bucuk_Milyon_TL_Arasi
Hatay,Erzin,Satilik,1_5_arasi,Yuksek_Giris,isitma_yok,bilinmiyor,yok,var,var,var,yok,yok,var,var,var,yok,var,var,yok,var,yok,yok,yok,yok,yok,yok,yok,yok,var,yok,yok,var,yok,yok,yok,yok,kademe_5,bilinmiyor,bilinmiyor,bilinmiyor,100_125_m2,3_oda,orta_4_7_kat,2_banyo,yok,dusuk,dusuk,dusuk,yuksek,yuksek,yok,2_3_Milyon_TL_Arasi
Osmaniye,Merkez,Satilik,0,5,Yerden_Isitma,bilinmiyor,yok,var,var,var,yok,yok,yok,yok,yok,yok,yok,yok,yok,yok,yok,yok,yok,yok,yok,yok,yok,yok,yok,yok,yok,yok,yok,yok,yok,yok,kademe_5,iyi,normal,bilinmiyor,150_200_m2,4_oda,orta_4_7_kat,2_banyo,yok,yok,yok,dusuk,yok,yok,yok,5_7_Bucuk_Milyon_TL_Arasi
Hatay,Arsuz,Satilik,0,Ara_Kat,Gunes_Enerjisi,bilinmiyor,yok,yok,yok,yok,yok,yok,var,var,var,yok,yok,yok,yok,yok,yok,yok,yok,yok,yok,yok,yok,yok,yok,yok,yok,yok,yok,yok,yok,yok,kademe_5,normal,bilinmiyor,kotu,125_150_m2,3_oda,orta_4_7_kat,2_banyo,yok,yok,yok,dusuk,yok,yok,yok,2_3_Milyon_TL_Arasi
Kahramanmaras,Onikisubat,Satilik,0,3,Kombi,bilinmiyor,yok,var,yok,var,yok,yok,var,var,var,yok,yok,yok,yok,yok,yok,yok,yok,yok,yok,yok,yok,yok,yok,yok,yok,yok,yok,yok,yok,yok,kademe_5,iyi,iyi,bilinmiyor,100_125_m2,3_oda,orta_4_7_kat,2_banyo,yok,yok,yok,dusuk,yok,yok,yok,3_4_Milyon_TL_Arasi
Osmaniye,Duzici,Satilik,6_10_arasi,2,Merkezi,bilinmiyor,yok,yok,yok,var,yok,yok,yok,yok,yok,yok,var,yok,yok,var,yok,yok,yok,yok,yok,yok,yok,yok,var,yok,yok,yok,yok,yok,yok,yok,kademe_5,kotu,bilinmiyor,bilinmiyor,50_75_m2,3_oda,orta_4_7_kat,1_banyo,dusuk,yok,yok,dusuk,yok,yuksek,yok,1_5_Milyon_TL_Alti
Tokat,Niksar,Satilik,1_5_arasi,bilinmiyor,Kombi,bilinmiyor,yok,yok,yok,yok,yok,yok,yok,var,yok,yok,yok,yok,yok,yok,yok,yok,yok,yok,yok,yok,yok,yok,yok,yok,yok,yok,yok,yok,yok,yok,kademe_5,normal,bilinmiyor,bilinmiyor,200_300_m2,4_oda,alcak_1_3_kat,1_banyo,yok,yok,yok,dusuk,yok,yok,yok,3_4_Milyon_TL_Arasi
Hatay,Defne,Satilik,16_20_arasi,3,Kombi_Dogalgaz,bilinmiyor,yok,var,yok,var,yok,var,var,var,yok,yok,var,yok,yok,yok,yok,yok,yok,yok,yok,yok,yok,yok,yok,yok,yok,var,yok,yok,yok,yok,kademe_5,normal,bilinmiyor,kotu,150_200_m2,4_oda,orta_4_7_kat,1_banyo,yok,yok,yok,dusuk,yok,yuksek,yok,2_3_Milyon_TL_Arasi
Tokat,Niksar,Satilik,1_5_arasi,3,Kombi_Dogalgaz,bilinmiyor,yok,yok,yok,yok,yok,var,var,var,var,yok,yok,yok,yok,yok,yok,yok,yok,yok,yok,yok,yok,yok,yok,yok,yok,yok,yok,yok,yok,yok,kademe_5,kotu,normal,kotu,50_75_m2,2_oda,orta_4_7_kat,1_banyo,yok,yok,yok,dusuk,yok,yok,yok,2_3_Milyon_TL_Arasi
Hatay,Defne,Satilik,6_10_arasi,3,Kombi,bilinmiyor,yok,var,yok,yok,yok,yok,yok,yok,yok,yok,yok,yok,yok,yok,yok,yok,yok,yok,yok,yok,yok,yok,yok,yok,yok,yok,yok,yok,yok,yok,kademe_5,normal,kotu,normal,300_m2_ve_ustu,4_oda,orta_4_7_kat,2_banyo,yok,yok,dusuk,orta,orta,yok,yok,2_3_Milyon_TL_Arasi
Tokat,Merkez,Satilik,6_10_arasi,Yuksek_Giris,Kombi,bilinmiyor,yok,var,var,var,yok,var,yok,var,var,yok,yok,yok,yok,var,yok,yok,yok,yok,yok,yok,yok,yok,yok,yok,yok,yok,yok,yok,yok,yok,kademe_5,iyi,bilinmiyor,bilinmiyor,200_300_m2,5_oda,yuksek_8_15_kat,2_banyo,yok,yok,yok,dusuk,yok,orta,yok,5_7_Bucuk_Milyon_TL_Arasi
Tokat,Merkez,Satilik,26_30_arasi,2,Kombi,bilinmiyor,yok,var,var,var,yok,yok,yok,yok,yok,yok,yok,yok,yok,yok,yok,yok,yok,yok,yok,yok,yok,yok,yok,yok,yok,yok,yok,yok,yok,yok,kademe_5,normal,normal,bilinmiyor,100_125_m2,3_oda,orta_4_7_kat,1_banyo,yok,yok,yok,dusuk,yok,yok,yok,3_4_Milyon_TL_Arasi
Yozgat,Merkez,Satilik,6_10_arasi,1,Merkezi,bilinmiyor,yok,var,yok,yok,yok,var,yok,yok,var,yok,yok,yok,yok,yok,yok,yok,yok,yok,yok,yok,yok,yok,yok,yok,yok,yok,yok,yok,yok,yok,kademe_5,iyi,bilinmiyor,bilinmiyor,150_200_m2,5_oda,orta_4_7_kat,2_banyo,yok,yok,yok,dusuk,yok,yok,yok,5_7_Bucuk_Milyon_TL_Arasi
Hatay,Iskenderun,Satilik,1_5_arasi,3,Kombi,bilinmiyor,yok,var,var,var,yok,var,var,var,var,yok,var,var,yok,var,yok,yok,yok,yok,var,yok,yok,yok,var,yok,yok,var,yok,yok,yok,yok,kademe_5,iyi,bilinmiyor,normal,150_200_m2,4_oda,yuksek_8_15_kat,2_banyo,dusuk,dusuk,dusuk,orta,yuksek,yuksek,yok,5_7_Bucuk_Milyon_TL_Arasi
Nigde,Merkez,Satilik,6_10_arasi,7,Merkezi,bilinmiyor,yok,var,var,var,yok,yok,var,yok,var,yok,yok,yok,yok,yok,yok,yok,yok,yok,yok,yok,yok,yok,yok,yok,yok,yok,yok,yok,yok,yok,kademe_5,normal,normal,bilinmiyor,200_300_m2,5_oda,yuksek_8_15_kat,2_banyo,yok,yok,yok,yok,yok,yok,yok,5_7_Bucuk_Milyon_TL_Arasi
Tokat,Merkez,Satilik,6_10_arasi,Yuksek_Giris,Kombi_Dogalgaz,bilinmiyor,yok,var,yok,yok,yok,var,yok,var,var,yok,var,yok,yok,var,yok,yok,yok,yok,yok,yok,yok,yok,var,yok,yok,var,yok,yok,yok,yok,kademe_5,normal,normal,bilinmiyor,125_150_m2,4_oda,alcak_1_3_kat,1_banyo,yok,dusuk,yok,dusuk,yok,orta,yok,3_4_Milyon_TL_Arasi
Osmaniye,Duzici,Satilik,21_25_arasi,bilinmiyor,Klima,bilinmiyor,yok,var,yok,yok,yok,var,var,var,var,yok,var,yok,yok,yok,yok,yok,yok,yok,yok,yok,yok,yok,var,yok,yok,var,yok,yok,yok,yok,kademe_5,normal,normal,iyi,125_150_m2,4_oda,alcak_1_3_kat,1_banyo,yok,yok,yok,dusuk,yok,yuksek,yok,3_4_Milyon_TL_Arasi
Hatay,Defne,Satilik,1_5_arasi,5,Kombi,bilinmiyor,yok,var,var,var,yok,yok,yok,yok,yok,yok,yok,yok,yok,yok,yok,yok,yok,yok,yok,yok,yok,yok,yok,yok,yok,yok,yok,yok,yok,yok,kademe_5,kotu,iyi,bilinmiyor,150_200_m2,4_oda,orta_4_7_kat,1_banyo,yok,yok,yok,dusuk,yok,yok,yok,3_4_Milyon_TL_Arasi
Hatay,Antakya,Satilik,0,3,Kombi_Dogalgaz,bilinmiyor,yok,var,var,var,yok,var,var,yok,var,yok,var,yok,yok,var,yok,yok,yok,var,yok,yok,yok,yok,yok,yok,yok,var,yok,yok,yok,yok,kademe_5,normal,normal,bilinmiyor,75_100_m2,3_oda,orta_4_7_kat,1_banyo,dusuk,dusuk,yok,dusuk,yok,yuksek,yok,2_3_Milyon_TL_Arasi
Yozgat,Bogazliyan,Satilik,0,3,Merkezi,bilinmiyor,yok,var,var,var,yok,yok,var,var,yok,yok,var,var,yok,var,yok,yok,yok,yok,yok,yok,var,yok,var,yok,yok,var,yok,yok,yok,yok,kademe_5,iyi,bilinmiyor,iyi,150_200_m2,4_oda,yuksek_8_15_kat,2_banyo,dusuk,dusuk,yok,dusuk,orta,yuksek,yok,4_5_Milyon_TL_Arasi
Tokat,Niksar,Satilik,0,Ara_Kat,Kombi_Dogalgaz,bilinmiyor,yok,var,var,yok,yok,yok,yok,yok,yok,yok,var,var,yok,yok,yok,yok,yok,yok,yok,yok,yok,yok,yok,yok,yok,yok,yok,yok,yok,yok,kademe_5,iyi,normal,bilinmiyor,125_150_m2,4_oda,orta_4_7_kat,2_banyo,dusuk,yok,yok,dusuk,yok,orta,yok,4_5_Milyon_TL_Arasi
Hatay,Dortyol,Satilik,1_5_arasi,4,Kombi,bilinmiyor,yok,var,var,var,yok,var,var,yok,var,yok,var,var,yok,var,yok,yok,yok,yok,yok,yok,yok,yok,yok,yok,yok,var,yok,yok,yok,yok,kademe_5,iyi,bilinmiyor,normal,150_200_m2,4_oda,orta_4_7_kat,2_banyo,yok,dusuk,yok,dusuk,orta,yuksek,yok,4_5_Milyon_TL_Arasi
Hatay,Iskenderun,Satilik,11_15_arasi,En_Ust_Kat,Klima,bilinmiyor,yok,var,var,var,yok,var,var,var,var,yok,var,yok,yok,var,yok,yok,yok,yok,var,yok,yok,var,yok,yok,yok,var,yok,yok,yok,yok,kademe_5,normal,bilinmiyor,bilinmiyor,75_100_m2,3_oda,orta_4_7_kat,1_banyo,dusuk,yok,orta,orta,orta,yuksek,yok,2_3_Milyon_TL_Arasi
Hatay,Arsuz,Satilik,0,3,belirtilmemis_elektrik,bilinmiyor,yok,var,var,var,yok,yok,yok,yok,yok,yok,var,var,yok,var,yok,yok,yok,yok,yok,yok,yok,var,var,yok,yok,var,var,yok,var,yok,kademe_5,normal,iyi,bilinmiyor,200_300_m2,4_oda,orta_4_7_kat,3_banyo_ve_ustu,yok,yok,yok,dusuk,yok,yuksek,yok,7_Bucuk_10_Milyon_TL_Arasi
Hatay,Iskenderun,Satilik,1_5_arasi,10,Kombi,bilinmiyor,yok,var,var,yok,var,yok,var,yok,yok,yok,var,yok,yok,var,yok,yok,yok,yok,var,yok,yok,yok,yok,yok,yok,var,yok,yok,yok,yok,kademe_5,normal,normal,kotu,75_100_m2,2_oda,yuksek_8_15_kat,1_banyo,dusuk,dusuk,dusuk,orta,orta,yuksek,yok,3_4_Milyon_TL_Arasi
Hatay,Arsuz,Satilik,1_5_arasi,2,Klima,bilinmiyor,yok,var,yok,var,yok,var,var,var,yok,yok,var,yok,yok,yok,yok,yok,yok,yok,yok,yok,yok,var,var,yok,yok,var,var,yok,yok,yok,kademe_5,iyi,normal,bilinmiyor,150_200_m2,4_oda,alcak_1_3_kat,1_banyo,dusuk,dusuk,dusuk,dusuk,dusuk,yuksek,yok,4_5_Milyon_TL_Arasi
Hatay,Iskenderun,Satilik,6_10_arasi,2,Kombi,bilinmiyor,yok,var,yok,var,yok,var,yok,var,var,yok,yok,yok,yok,yok,yok,yok,yok,yok,yok,yok,yok,yok,var,yok,yok,var,yok,yok,yok,yok,kademe_5,iyi,normal,iyi,125_150_m2,4_oda,orta_4_7_kat,1_banyo,yok,yok,yok,dusuk,dusuk,yok,yok,3_4_Milyon_TL_Arasi
Erzurum,Pasinler,Satilik,11_15_arasi,1,Soba,bilinmiyor,yok,var,yok,yok,yok,yok,yok,yok,yok,yok,yok,yok,yok,yok,yok,yok,yok,yok,yok,yok,yok,yok,yok,yok,yok,yok,yok,yok,yok,yok,kademe_5,bilinmiyor,bilinmiyor,bilinmiyor,150_200_m2,4_oda,orta_4_7_kat,1_banyo,yok,yok,yok,dusuk,yok,yok,yok,2_3_Milyon_TL_Arasi
Hatay,Iskenderun,Satilik,26_30_arasi,3,Kombi,bilinmiyor,yok,var,var,yok,yok,var,var,yok,yok,yok,yok,yok,yok,yok,yok,yok,yok,yok,yok,yok,yok,yok,yok,yok,yok,var,yok,yok,yok,yok,kademe_5,iyi,normal,kotu,100_125_m2,4_oda,orta_4_7_kat,1_banyo,yok,yok,dusuk,orta,orta,dusuk,yok,3_4_Milyon_TL_Arasi
Osmaniye,Merkez,Satilik,1_5_arasi,En_Ust_Kat,Kombi_Dogalgaz,bilinmiyor,yok,var,var,yok,yok,yok,var,var,yok,yok,var,var,yok,yok,yok,yok,yok,yok,yok,yok,yok,yok,yok,yok,yok,yok,yok,yok,yok,yok,kademe_5,normal,normal,iyi,150_200_m2,4_oda,orta_4_7_kat,2_banyo,yok,yok,yok,dusuk,dusuk,orta,yok,4_5_Milyon_TL_Arasi
Hatay,Arsuz,Satilik,1_5_arasi,En_Ust_Kat,Soba,bilinmiyor,yok,yok,yok,yok,yok,yok,yok,yok,yok,yok,yok,yok,yok,yok,yok,yok,yok,yok,yok,yok,yok,yok,yok,yok,yok,yok,yok,yok,yok,yok,kademe_5,kotu,bilinmiyor,kotu,150_200_m2,4_oda,orta_4_7_kat,1_banyo,yok,yok,yok,dusuk,yok,yok,yok,4_5_Milyon_TL_Arasi
Tokat,Merkez,Satilik,1_5_arasi,Yuksek_Giris,Kombi,bilinmiyor,yok,var,var,var,yok,var,yok,var,yok,yok,var,var,yok,var,yok,yok,yok,yok,yok,yok,yok,yok,yok,yok,yok,var,yok,yok,yok,yok,kademe_5,normal,normal,normal,125_150_m2,4_oda,yuksek_8_15_kat,2_banyo,yok,yok,dusuk,dusuk,yuksek,yuksek,yok,4_5_Milyon_TL_Arasi
Yozgat,Sorgun,Satilik,11_15_arasi,3,Kombi_Dogalgaz,bilinmiyor,yok,var,var,yok,yok,var,var,var,yok,yok,var,yok,yok,yok,yok,yok,yok,yok,yok,yok,yok,yok,yok,yok,yok,var,yok,yok,yok,yok,kademe_5,normal,bilinmiyor,kotu,100_125_m2,4_oda,orta_4_7_kat,1_banyo,yok,yok,yok,dusuk,dusuk,orta,yok,3_4_Milyon_TL_Arasi
Hatay,Arsuz,Satilik,11_15_arasi,bilinmiyor,Klima,bilinmiyor,yok,var,yok,var,yok,var,var,var,var,yok,var,var,yok,yok,yok,yok,yok,yok,yok,yok,yok,yok,var,yok,yok,yok,yok,yok,yok,yok,kademe_5,normal,normal,kotu,150_200_m2,4_oda,alcak_1_3_kat,2_banyo,dusuk,yok,yok,orta,dusuk,orta,yok,10_Milyon_TL_Ustu
Hatay,Iskenderun,Satilik,21_25_arasi,bilinmiyor,Klima,bilinmiyor,yok,yok,yok,var,yok,var,var,var,var,yok,yok,yok,yok,yok,yok,yok,yok,yok,yok,yok,yok,yok,yok,yok,yok,yok,yok,yok,yok,yok,kademe_5,bilinmiyor,bilinmiyor,bilinmiyor,300_m2_ve_ustu,6_oda,alcak_1_3_kat,2_banyo,yok,yok,yok,orta,dusuk,dusuk,yok,4_5_Milyon_TL_Arasi
Hatay,Arsuz,Satilik,11_15_arasi,bilinmiyor,Gunes_Enerjisi,bilinmiyor,yok,var,yok,yok,yok,yok,yok,yok,yok,yok,yok,yok,yok,yok,yok,yok,yok,yok,yok,yok,yok,yok,yok,yok,yok,yok,yok,yok,yok,yok,kademe_5,kotu,bilinmiyor,bilinmiyor,300_m2_ve_ustu,5_oda,alcak_1_3_kat,2_banyo,yok,yok,yok,dusuk,yok,yok,yok,7_Bucuk_10_Milyon_TL_Arasi
Yozgat,Merkez,Satilik,1_5_arasi,2,Kombi_Dogalgaz,bilinmiyor,yok,var,var,var,yok,yok,yok,yok,yok,yok,var,var,yok,yok,yok,yok,yok,yok,yok,yok,yok,yok,yok,yok,yok,var,yok,yok,yok,yok,kademe_5,iyi,normal,bilinmiyor,150_200_m2,4_oda,orta_4_7_kat,1_banyo,yok,yok,yok,dusuk,dusuk,yuksek,yok,4_5_Milyon_TL_Arasi
Hatay,Kirikhan,Satilik,11_15_arasi,6,Kombi,bilinmiyor,yok,var,var,var,yok,yok,var,yok,var,yok,var,var,yok,var,yok,yok,yok,yok,yok,yok,yok,yok,yok,yok,yok,yok,yok,yok,yok,yok,kademe_5,normal,kotu,normal,150_200_m2,4_oda,yuksek_8_15_kat,1_banyo,yok,yok,yok,dusuk,orta,orta,yok,2_3_Milyon_TL_Arasi
Hatay,Arsuz,Satilik,6_10_arasi,4,Klima,bilinmiyor,yok,var,var,yok,yok,var,var,var,var,yok,var,yok,yok,yok,yok,yok,yok,yok,yok,yok,yok,var,var,yok,yok,var,yok,yok,yok,yok,kademe_5,iyi,normal,normal,150_200_m2,4_oda,orta_4_7_kat,1_banyo,dusuk,yok,yok,orta,dusuk,orta,yok,3_4_Milyon_TL_Arasi
Hatay,Iskenderun,Satilik,1_5_arasi,2,Kombi,bilinmiyor,yok,var,var,var,var,yok,yok,yok,yok,yok,yok,yok,yok,yok,yok,yok,yok,yok,yok,yok,yok,yok,yok,yok,yok,yok,yok,yok,yok,yok,kademe_5,iyi,normal,bilinmiyor,75_100_m2,3_oda,orta_4_7_kat,1_banyo,yok,yok,yok,dusuk,yok,yok,yok,4_5_Milyon_TL_Arasi
Tokat,Merkez,Satilik,6_10_arasi,1,Kombi_Dogalgaz,bilinmiyor,yok,yok,yok,yok,yok,yok,var,var,yok,yok,yok,yok,yok,yok,yok,yok,yok,yok,yok,yok,yok,yok,yok,yok,yok,yok,yok,yok,yok,yok,kademe_5,normal,bilinmiyor,normal,100_125_m2,3_oda,orta_4_7_kat,1_banyo,yok,yok,yok,yok,yok,yok,yok,5_7_Bucuk_Milyon_TL_Arasi
Tokat,Niksar,Satilik,11_15_arasi,bilinmiyor,Soba,bilinmiyor,yok,yok,yok,yok,yok,yok,yok,var,yok,yok,yok,yok,yok,var,yok,yok,yok,yok,yok,yok,yok,yok,yok,yok,yok,var,yok,yok,yok,yok,kademe_5,normal,kotu,kotu,300_m2_ve_ustu,4_oda,alcak_1_3_kat,1_banyo,yok,yok,yok,dusuk,orta,orta,yok,7_Bucuk_10_Milyon_TL_Arasi
Hatay,Iskenderun,Satilik,31_ve_uzeri,5,belirtilmemis_elektrik,bilinmiyor,yok,yok,yok,yok,yok,yok,yok,yok,yok,yok,yok,yok,yok,yok,yok,yok,yok,yok,yok,yok,yok,yok,yok,yok,yok,yok,yok,yok,yok,yok,kademe_5,kotu,bilinmiyor,kotu,125_150_m2,4_oda,orta_4_7_kat,1_banyo,yok,yok,yok,dusuk,yok,yok,yok,1_5_2_Milyon_TL_Arasi
Hatay,Iskenderun,Satilik,21_25_arasi,Ara_Kat,Klima,bilinmiyor,yok,yok,yok,yok,var,var,var,var,var,yok,yok,yok,yok,yok,yok,yok,yok,yok,yok,yok,yok,yok,yok,yok,yok,yok,yok,yok,yok,yok,kademe_5,kotu,normal,bilinmiyor,300_m2_ve_ustu,3_oda,orta_4_7_kat,1_banyo,yok,yok,yok,dusuk,yok,dusuk,yok,5_7_Bucuk_Milyon_TL_Arasi
Yozgat,Merkez,Satilik,1_5_arasi,En_Ust_Kat,Kombi,bilinmiyor,yok,var,var,var,yok,var,yok,yok,var,yok,var,var,yok,var,yok,yok,yok,yok,yok,yok,yok,yok,yok,yok,yok,var,yok,yok,yok,yok,kademe_5,iyi,iyi,iyi,125_150_m2,5_oda,orta_4_7_kat,2_banyo,dusuk,yok,yok,dusuk,yok,yuksek,yok,3_4_Milyon_TL_Arasi
Nigde,Merkez,Satilik,31_ve_uzeri,3,Kombi,bilinmiyor,yok,var,yok,yok,yok,var,var,yok,var,yok,yok,yok,yok,var,yok,yok,yok,yok,yok,yok,yok,yok,yok,yok,yok,var,yok,yok,yok,yok,kademe_5,bilinmiyor,normal,bilinmiyor,100_125_m2,3_oda,orta_4_7_kat,1_banyo,yok,yok,yok,dusuk,yok,dusuk,yok,2_3_Milyon_TL_Arasi
Hatay,Hassa,Satilik,6_10_arasi,bilinmiyor,Soba,bilinmiyor,yok,yok,yok,yok,yok,yok,yok,yok,yok,yok,yok,yok,yok,yok,yok,yok,yok,yok,yok,yok,yok,yok,yok,yok,yok,yok,yok,yok,yok,yok,kademe_5,bilinmiyor,bilinmiyor,bilinmiyor,300_m2_ve_ustu,7_oda_ve_ustu,alcak_1_3_kat,3_banyo_ve_ustu,yok,yok,yok,dusuk,yok,yok,yok,3_4_Milyon_TL_Arasi
Tokat,Niksar,Satilik,16_20_arasi,bilinmiyor,Soba,bilinmiyor,yok,var,yok,var,yok,var,yok,var,yok,yok,yok,yok,yok,var,yok,yok,yok,yok,yok,yok,yok,yok,var,yok,yok,var,yok,yok,yok,yok,kademe_5,normal,normal,normal,200_300_m2,3_oda,alcak_1_3_kat,1_banyo,yok,yok,yok,orta,orta,dusuk,yok,1_5_Milyon_TL_Alti
Erzurum,Yakutiye,Satilik,11_15_arasi,7,Kombi,bilinmiyor,yok,yok,yok,var,yok,yok,yok,yok,yok,yok,yok,yok,yok,yok,yok,yok,yok,yok,yok,yok,yok,yok,yok,yok,yok,yok,yok,yok,yok,yok,kademe_5,bilinmiyor,bilinmiyor,bilinmiyor,150_200_m2,5_oda,yuksek_8_15_kat,1_banyo,yok,yok,yok,yok,yok,yok,yok,2_3_Milyon_TL_Arasi
Hatay,Dortyol,Satilik,6_10_arasi,2,Kombi,bilinmiyor,yok,var,var,var,yok,var,yok,var,var,yok,var,var,yok,yok,yok,yok,yok,yok,yok,yok,yok,yok,yok,yok,yok,var,yok,yok,yok,yok,kademe_5,bilinmiyor,bilinmiyor,bilinmiyor,150_200_m2,5_oda,orta_4_7_kat,2_banyo,yok,yok,dusuk,orta,orta,orta,yok,4_5_Milyon_TL_Arasi
Hatay,Iskenderun,Satilik,1_5_arasi,Yuksek_Giris,Kombi,bilinmiyor,yok,var,var,var,yok,yok,var,var,var,yok,yok,yok,yok,yok,yok,yok,yok,yok,yok,yok,yok,yok,yok,yok,yok,yok,yok,yok,yok,yok,kademe_5,iyi,iyi,bilinmiyor,75_100_m2,3_oda,orta_4_7_kat,1_banyo,yok,yok,yok,dusuk,yok,yok,yok,2_3_Milyon_TL_Arasi
Hatay,Iskenderun,Satilik,6_10_arasi,Ara_Kat,Klima,bilinmiyor,yok,var,var,var,yok,yok,var,yok,yok,yok,var,yok,yok,yok,yok,yok,yok,yok,yok,yok,yok,var,yok,yok,yok,var,yok,yok,yok,yok,kademe_5,normal,bilinmiyor,kotu,150_200_m2,4_oda,orta_4_7_kat,1_banyo,yok,yok,yok,dusuk,orta,yuksek,yok,3_4_Milyon_TL_Arasi
Hatay,Iskenderun,Satilik,6_10_arasi,1,Kombi_Dogalgaz,bilinmiyor,yok,var,var,var,yok,var,var,yok,var,yok,var,var,yok,yok,yok,yok,yok,var,yok,yok,yok,yok,yok,yok,yok,yok,yok,yok,yok,yok,kademe_5,iyi,normal,bilinmiyor,150_200_m2,4_oda,yuksek_8_15_kat,2_banyo,dusuk,yok,yok,orta,orta,yuksek,yok,4_5_Milyon_TL_Arasi
Nigde,Merkez,Satilik,16_20_arasi,1,Merkezi,bilinmiyor,yok,var,var,var,yok,yok,yok,yok,yok,yok,yok,yok,yok,yok,yok,yok,yok,yok,yok,yok,yok,yok,yok,yok,yok,yok,yok,yok,yok,yok,kademe_5,normal,bilinmiyor,bilinmiyor,150_200_m2,4_oda,orta_4_7_kat,1_banyo,yok,yok,yok,dusuk,yok,dusuk,yok,3_4_Milyon_TL_Arasi
Kahramanmaras,Onikisubat,Satilik,16_20_arasi,2,Kombi,bilinmiyor,yok,var,var,var,yok,var,var,var,var,yok,var,yok,yok,yok,yok,yok,yok,yok,yok,yok,yok,yok,var,yok,yok,var,yok,yok,yok,yok,kademe_5,iyi,kotu,kotu,200_300_m2,4_oda,orta_4_7_kat,1_banyo,yok,yok,yok,dusuk,yuksek,orta,yok,3_4_Milyon_TL_Arasi
Hatay,Arsuz,Satilik,6_10_arasi,1,Klima,bilinmiyor,yok,var,var,yok,yok,yok,yok,var,var,yok,var,yok,yok,var,yok,yok,yok,yok,yok,yok,yok,yok,yok,yok,yok,yok,yok,yok,yok,yok,kademe_5,normal,normal,bilinmiyor,125_150_m2,4_oda,orta_4_7_kat,1_banyo,yok,yok,yok,dusuk,yok,yuksek,yok,3_4_Milyon_TL_Arasi
Hatay,Arsuz,Satilik,0,bilinmiyor,Kombi_Dogalgaz,bilinmiyor,yok,yok,yok,yok,yok,var,var,var,var,yok,yok,yok,yok,yok,yok,yok,yok,yok,yok,yok,yok,var,var,yok,yok,yok,yok,yok,yok,yok,kademe_5,bilinmiyor,bilinmiyor,iyi,200_300_m2,5_oda,orta_4_7_kat,3_banyo_ve_ustu,yok,yok,yok,dusuk,dusuk,yok,yok,10_Milyon_TL_Ustu
Hatay,Arsuz,Satilik,16_20_arasi,Bahce,Klima,bilinmiyor,yok,yok,yok,var,yok,var,var,yok,var,yok,var,yok,yok,yok,yok,yok,yok,yok,var,yok,yok,yok,var,yok,yok,yok,yok,yok,yok,var,kademe_5,bilinmiyor,bilinmiyor,bilinmiyor,200_300_m2,5_oda,orta_4_7_kat,2_banyo,yok,dusuk,yok,dusuk,orta,yuksek,yok,7_Bucuk_10_Milyon_TL_Arasi
Tokat,Merkez,Satilik,0,6,Kombi_Dogalgaz,bilinmiyor,yok,yok,yok,yok,yok,yok,var,yok,yok,yok,yok,yok,yok,yok,yok,yok,yok,yok,yok,yok,yok,yok,yok,yok,yok,yok,yok,yok,yok,yok,kademe_5,kotu,bilinmiyor,bilinmiyor,0_50_m2,2_oda,orta_4_7_kat,1_banyo,yok,yok,yok,dusuk,yok,yok,yok,2_3_Milyon_TL_Arasi
Yozgat,Bogazliyan,Satilik,21_25_arasi,Bahce,Soba,bilinmiyor,yok,yok,yok,yok,yok,var,var,var,yok,yok,yok,yok,yok,yok,yok,yok,yok,yok,yok,yok,yok,yok,yok,yok,yok,yok,yok,var,yok,yok,kademe_5,bilinmiyor,bilinmiyor,bilinmiyor,125_150_m2,4_oda,bilinmiyor,1_banyo,yok,yok,yok,dusuk,yok,yok,yok,4_5_Milyon_TL_Arasi
Kahramanmaras,Pazarcik,Satilik,0,Bahce,Kombi,bilinmiyor,yok,var,yok,var,yok,var,var,yok,var,yok,var,yok,yok,yok,yok,yok,yok,yok,yok,yok,yok,yok,var,yok,yok,yok,yok,yok,yok,yok,kademe_5,iyi,normal,bilinmiyor,125_150_m2,4_oda,bilinmiyor,2_banyo,yok,yok,yok,dusuk,yuksek,orta,yok,10_Milyon_TL_Ustu
Hatay,Antakya,Satilik,6_10_arasi,3,Kombi_Dogalgaz,bilinmiyor,yok,yok,var,yok,yok,yok,var,var,yok,yok,yok,yok,yok,yok,yok,yok,yok,yok,yok,yok,yok,yok,yok,yok,yok,yok,yok,yok,yok,yok,kademe_5,iyi,kotu,bilinmiyor,100_125_m2,3_oda,yuksek_8_15_kat,1_banyo,yok,yok,yok,dusuk,yok,yok,yok,1_5_2_Milyon_TL_Arasi
Hatay,Iskenderun,Satilik,16_20_arasi,2,Kombi_Dogalgaz,bilinmiyor,yok,var,var,var,yok,var,var,yok,var,yok,var,yok,yok,var,yok,yok,yok,yok,yok,yok,yok,var,var,yok,yok,var,yok,yok,yok,yok,kademe_5,bilinmiyor,bilinmiyor,kotu,100_125_m2,4_oda,orta_4_7_kat,1_banyo,dusuk,dusuk,yok,dusuk,orta,yuksek,yok,2_3_Milyon_TL_Arasi
Yozgat,Merkez,Satilik,6_10_arasi,2,Kombi_Dogalgaz,bilinmiyor,yok,yok,var,var,var,var,var,var,yok,yok,var,var,yok,yok,yok,yok,yok,yok,yok,yok,yok,yok,yok,yok,yok,var,yok,yok,yok,yok,kademe_5,normal,normal,bilinmiyor,75_100_m2,3_oda,yuksek_8_15_kat,2_banyo,dusuk,yok,yok,yok,yok,yok,yok,1_5_2_Milyon_TL_Arasi
Osmaniye,Merkez,Satilik,6_10_arasi,Ara_Kat,Kombi,bilinmiyor,yok,yok,yok,yok,yok,yok,yok,yok,yok,yok,yok,yok,yok,yok,yok,yok,yok,yok,yok,yok,yok,yok,yok,yok,yok,yok,yok,yok,yok,yok,kademe_5,iyi,bilinmiyor,iyi,150_200_m2,5_oda,orta_4_7_kat,1_banyo,yok,yok,yok,dusuk,yok,yok,yok,5_7_Bucuk_Milyon_TL_Arasi
Osmaniye,Merkez,Satilik,16_20_arasi,7,Kombi_Dogalgaz,bilinmiyor,yok,var,yok,yok,yok,var,var,var,var,yok,yok,yok,yok,yok,yok,yok,yok,yok,yok,yok,yok,yok,yok,yok,yok,yok,yok,yok,yok,yok,kademe_5,normal,iyi,normal,150_200_m2,5_oda,yuksek_8_15_kat,1_banyo,yok,yok,yok,dusuk,yok,yok,yok,2_3_Milyon_TL_Arasi
Erzurum,Palandoken,Satilik,1_5_arasi,6,Merkezi,bilinmiyor,yok,var,var,var,yok,yok,var,yok,var,yok,var,var,yok,var,yok,yok,yok,yok,yok,yok,yok,yok,yok,yok,yok,yok,yok,yok,yok,yok,kademe_5,iyi,iyi,bilinmiyor,150_200_m2,4_oda,yuksek_8_15_kat,2_banyo,dusuk,dusuk,dusuk,dusuk,orta,yuksek,yok,4_5_Milyon_TL_Arasi
Tokat,Merkez,Satilik,11_15_arasi,En_Ust_Kat,Kombi_Dogalgaz,bilinmiyor,yok,var,var,var,yok,yok,var,var,yok,yok,var,yok,yok,var,yok,yok,yok,yok,yok,yok,yok,yok,yok,yok,yok,yok,var,yok,yok,yok,kademe_5,bilinmiyor,bilinmiyor,bilinmiyor,150_200_m2,5_oda,orta_4_7_kat,2_banyo,yok,dusuk,yok,dusuk,orta,yuksek,yok,5_7_Bucuk_Milyon_TL_Arasi
Tokat,Merkez,Satilik,6_10_arasi,3,Kombi_Dogalgaz,bilinmiyor,yok,yok,yok,var,yok,var,var,var,var,yok,yok,yok,yok,yok,yok,yok,yok,yok,yok,yok,yok,yok,yok,yok,yok,yok,yok,yok,yok,yok,kademe_5,normal,normal,bilinmiyor,125_150_m2,4_oda,orta_4_7_kat,1_banyo,yok,yok,yok,dusuk,yok,yok,yok,4_5_Milyon_TL_Arasi
Kahramanmaras,Onikisubat,Satilik,1_5_arasi,6,Merkezi,bilinmiyor,yok,var,yok,var,yok,var,yok,var,var,yok,var,var,yok,var,yok,yok,yok,yok,yok,yok,yok,yok,var,yok,yok,var,yok,yok,yok,yok,kademe_5,normal,bilinmiyor,bilinmiyor,100_125_m2,3_oda,yuksek_8_15_kat,2_banyo,dusuk,dusuk,yok,dusuk,yok,yuksek,yok,4_5_Milyon_TL_Arasi
Kahramanmaras,Onikisubat,Satilik,6_10_arasi,3,Kombi_Dogalgaz,bilinmiyor,yok,var,var,var,yok,yok,var,var,var,yok,var,yok,yok,yok,yok,yok,yok,yok,yok,yok,yok,var,yok,yok,yok,var,yok,yok,yok,yok,kademe_5,normal,normal,bilinmiyor,100_125_m2,4_oda,yuksek_8_15_kat,1_banyo,dusuk,yok,yok,dusuk,orta,yuksek,yok,2_3_Milyon_TL_Arasi
Erzurum,Yakutiye,Satilik,11_15_arasi,7,Merkezi,bilinmiyor,yok,var,var,yok,yok,yok,var,var,yok,yok,var,yok,yok,yok,var,yok,yok,yok,yok,yok,yok,yok,yok,yok,yok,yok,yok,yok,yok,yok,kademe_5,iyi,normal,bilinmiyor,200_300_m2,4_oda,yuksek_8_15_kat,2_banyo,yok,yok,yok,dusuk,yok,dusuk,yok,2_3_Milyon_TL_Arasi
Kahramanmaras,Onikisubat,Satilik,6_10_arasi,1,Merkezi,bilinmiyor,yok,yok,yok,var,yok,var,yok,yok,yok,yok,yok,yok,yok,yok,yok,yok,yok,yok,yok,yok,yok,yok,yok,yok,yok,yok,yok,yok,yok,yok,kademe_5,bilinmiyor,bilinmiyor,bilinmiyor,300_m2_ve_ustu,6_oda,yuksek_8_15_kat,2_banyo,yok,yok,yok,dusuk,orta,yok,yok,10_Milyon_TL_Ustu
Hatay,Iskenderun,Satilik,0,Yuksek_Giris,Kombi,bilinmiyor,yok,var,var,var,yok,yok,yok,yok,yok,yok,yok,yok,yok,yok,yok,yok,yok,yok,yok,yok,yok,yok,yok,yok,yok,yok,yok,yok,yok,yok,kademe_5,kotu,bilinmiyor,iyi,100_125_m2,4_oda,orta_4_7_kat,1_banyo,yok,yok,yok,dusuk,yok,yok,yok,3_4_Milyon_TL_Arasi
Hatay,Antakya,Satilik,6_10_arasi,2,Kombi_Dogalgaz,bilinmiyor,yok,var,var,yok,yok,yok,var,yok,var,yok,var,yok,yok,var,yok,yok,yok,yok,yok,yok,yok,yok,yok,yok,yok,var,yok,yok,yok,yok,kademe_5,normal,bilinmiyor,iyi,125_150_m2,4_oda,orta_4_7_kat,1_banyo,dusuk,yok,yok,dusuk,orta,yuksek,yok,3_4_Milyon_TL_Arasi
Hatay,Defne,Satilik,11_15_arasi,4,Kombi_Dogalgaz,bilinmiyor,yok,var,var,var,yok,yok,var,var,yok,yok,var,yok,yok,var,yok,yok,yok,yok,yok,yok,var,yok,yok,yok,yok,var,var,yok,var,yok,kademe_5,kotu,kotu,normal,300_m2_ve_ustu,5_oda,orta_4_7_kat,2_banyo,dusuk,orta,dusuk,dusuk,dusuk,yuksek,yok,7_Bucuk_10_Milyon_TL_Arasi
Nigde,Merkez,Satilik,21_25_arasi,4,Kombi,bilinmiyor,yok,var,var,var,yok,var,yok,yok,var,yok,yok,yok,yok,yok,yok,yok,yok,yok,yok,yok,yok,yok,yok,yok,yok,var,yok,yok,yok,yok,kademe_5,normal,iyi,kotu,150_200_m2,4_oda,orta_4_7_kat,1_banyo,yok,yok,yok,dusuk,yok,dusuk,yok,3_4_Milyon_TL_Arasi
Kahramanmaras,Elbistan,Satilik,1_5_arasi,4,Kombi_Dogalgaz,bilinmiyor,yok,var,yok,yok,yok,yok,var,var,var,yok,yok,yok,yok,yok,yok,yok,yok,yok,yok,yok,yok,yok,yok,yok,yok,yok,yok,yok,var,yok,kademe_5,iyi,iyi,normal,150_200_m2,5_oda,orta_4_7_kat,2_banyo,yok,yok,yok,dusuk,dusuk,yok,yok,2_3_Milyon_TL_Arasi
Tokat,Niksar,Satilik,0,2,Yerden_Isitma,bilinmiyor,yok,var,yok,yok,yok,yok,yok,var,yok,yok,yok,yok,yok,yok,yok,yok,yok,yok,yok,yok,yok,yok,yok,yok,yok,yok,yok,yok,yok,yok,kademe_5,normal,normal,normal,100_125_m2,3_oda,orta_4_7_kat,1_banyo,yok,yok,yok,dusuk,yok,yok,yok,4_5_Milyon_TL_Arasi
Tokat,Merkez,Satilik,1_5_arasi,3,Merkezi,bilinmiyor,yok,yok,yok,yok,var,yok,yok,var,yok,yok,yok,yok,yok,yok,yok,yok,yok,yok,yok,yok,yok,yok,yok,yok,yok,yok,yok,yok,yok,yok,kademe_5,bilinmiyor,normal,bilinmiyor,50_75_m2,2_oda,yuksek_8_15_kat,1_banyo,yok,yok,yok,dusuk,yok,yok,yok,1_5_Milyon_TL_Alti
Cankiri,Sabanozu,Satilik,16_20_arasi,Bahce,Kombi,bilinmiyor,yok,yok,yok,yok,yok,var,var,var,var,yok,yok,yok,yok,yok,yok,yok,yok,yok,yok,yok,yok,yok,var,yok,yok,yok,yok,yok,yok,yok,kademe_5,bilinmiyor,bilinmiyor,bilinmiyor,125_150_m2,4_oda,bilinmiyor,1_banyo,yok,yok,yok,dusuk,yok,yok,yok,2_3_Milyon_TL_Arasi
Erzurum,Yakutiye,Satilik,6_10_arasi,6,Kombi,bilinmiyor,yok,var,var,var,yok,var,var,yok,var,yok,var,var,yok,var,yok,yok,yok,yok,yok,yok,yok,yok,var,yok,yok,var,yok,yok,yok,yok,kademe_5,normal,normal,bilinmiyor,200_300_m2,5_oda,yuksek_8_15_kat,2_banyo,dusuk,dusuk,dusuk,dusuk,orta,yuksek,yok,2_3_Milyon_TL_Arasi
Tokat,Merkez,Satilik,11_15_arasi,En_Ust_Kat,Kombi_Dogalgaz,bilinmiyor,yok,var,var,var,yok,yok,yok,var,var,yok,var,yok,yok,yok,yok,yok,yok,yok,yok,yok,yok,yok,yok,yok,yok,yok,var,yok,var,yok,kademe_5,iyi,normal,iyi,150_200_m2,6_oda,orta_4_7_kat,1_banyo,dusuk,yok,yok,dusuk,orta,yuksek,yok,5_7_Bucuk_Milyon_TL_Arasi
Tokat,Niksar,Satilik,21_25_arasi,Ara_Kat,Kombi_Dogalgaz,bilinmiyor,yok,var,yok,yok,var,var,var,var,var,yok,yok,yok,yok,yok,yok,yok,yok,yok,yok,yok,yok,yok,yok,yok,yok,yok,yok,yok,yok,yok,kademe_5,normal,kotu,bilinmiyor,100_125_m2,3_oda,orta_4_7_kat,1_banyo,yok,yok,yok,dusuk,yok,yok,yok,2_3_Milyon_TL_Arasi
Kahramanmaras,Onikisubat,Satilik,1_5_arasi,12,Merkezi,bilinmiyor,yok,var,var,var,yok,var,var,var,var,var,var,var,yok,var,yok,yok,yok,var,yok,yok,yok,yok,yok,var,yok,var,yok,yok,yok,yok,kademe_5,normal,normal,bilinmiyor,150_200_m2,4_oda,yuksek_8_15_kat,1_banyo,orta,dusuk,dusuk,orta,orta,yuksek,yok,3_4_Milyon_TL_Arasi
Hatay,Iskenderun,Satilik,6_10_arasi,3,isitma_yok,bilinmiyor,yok,var,var,yok,yok,var,yok,yok,yok,yok,yok,yok,yok,yok,yok,yok,yok,yok,yok,yok,yok,yok,yok,yok,yok,var,yok,yok,yok,yok,kademe_5,iyi,normal,normal,75_100_m2,3_oda,orta_4_7_kat,1_banyo,yok,yok,dusuk,orta,yuksek,yok,yok,2_3_Milyon_TL_Arasi
Hatay,Arsuz,Satilik,1_5_arasi,3,Klima,bilinmiyor,yok,var,yok,var,yok,var,var,var,yok,yok,yok,yok,yok,yok,yok,yok,yok,yok,yok,yok,yok,yok,yok,yok,yok,yok,yok,yok,yok,yok,kademe_5,normal,normal,kotu,200_300_m2,4_oda,orta_4_7_kat,2_banyo,yok,dusuk,yok,dusuk,yok,dusuk,yok,4_5_Milyon_TL_Arasi
Hatay,Belen,Satilik,6_10_arasi,En_Ust_Kat,Klima,bilinmiyor,yok,var,var,yok,yok,yok,yok,yok,var,yok,yok,yok,yok,yok,yok,yok,yok,yok,yok,yok,yok,yok,yok,yok,yok,yok,yok,yok,var,yok,kademe_5,normal,bilinmiyor,kotu,200_300_m2,6_oda,orta_4_7_kat,2_banyo,yok,yok,yok,dusuk,yok,dusuk,yok,4_5_Milyon_TL_Arasi
Tokat,Merkez,Satilik,11_15_arasi,1,Kombi,bilinmiyor,yok,var,var,var,yok,yok,yok,yok,yok,yok,yok,yok,yok,yok,yok,yok,yok,yok,yok,yok,yok,yok,yok,yok,yok,yok,yok,yok,yok,yok,kademe_5,iyi,iyi,bilinmiyor,150_200_m2,5_oda,orta_4_7_kat,2_banyo,yok,yok,yok,yok,yok,yok,yok,5_7_Bucuk_Milyon_TL_Arasi
Hatay,Iskenderun,Satilik,16_20_arasi,1,isitma_yok,bilinmiyor,yok,var,var,var,yok,yok,yok,yok,yok,yok,yok,yok,yok,yok,yok,yok,yok,yok,yok,yok,yok,yok,yok,yok,yok,yok,yok,yok,yok,yok,kademe_5,normal,normal,bilinmiyor,75_100_m2,3_oda,yuksek_8_15_kat,1_banyo,yok,yok,yok,dusuk,yok,yok,yok,2_3_Milyon_TL_Arasi
Yozgat,Merkez,Satilik,16_20_arasi,6,Merkezi,bilinmiyor,yok,var,var,var,yok,yok,var,yok,var,yok,var,var,yok,yok,yok,yok,yok,yok,yok,yok,yok,yok,yok,yok,yok,var,yok,yok,var,yok,kademe_5,normal,bilinmiyor,bilinmiyor,200_300_m2,7_oda_ve_ustu,yuksek_8_15_kat,3_banyo_ve_ustu,dusuk,dusuk,yok,dusuk,yok,yuksek,yok,4_5_Milyon_TL_Arasi
Tokat,Merkez,Satilik,21_25_arasi,4,Kombi_Dogalgaz,bilinmiyor,yok,yok,yok,yok,yok,yok,yok,yok,yok,yok,yok,yok,yok,yok,yok,yok,yok,yok,yok,yok,yok,yok,yok,yok,yok,yok,yok,yok,yok,yok,kademe_5,kotu,normal,bilinmiyor,100_125_m2,3_oda,orta_4_7_kat,1_banyo,yok,yok,yok,yok,yok,yok,yok,2_3_Milyon_TL_Arasi
Nigde,Merkez,Satilik,0,Zemin,Kombi,bilinmiyor,yok,yok,var,var,yok,yok,yok,var,yok,yok,var,yok,yok,var,yok,yok,yok,yok,yok,yok,yok,yok,yok,yok,yok,var,yok,yok,yok,yok,kademe_5,bilinmiyor,normal,bilinmiyor,50_75_m2,2_oda,orta_4_7_kat,1_banyo,yok,yok,yok,dusuk,orta,orta,yok,2_3_Milyon_TL_Arasi
Hatay,Iskenderun,Satilik,1_5_arasi,Ara_Kat,Klima,bilinmiyor,yok,yok,yok,yok,var,var,var,var,var,yok,yok,yok,yok,yok,yok,yok,yok,yok,yok,yok,yok,yok,yok,yok,yok,yok,yok,yok,yok,yok,kademe_5,normal,normal,kotu,0_50_m2,2_oda,orta_4_7_kat,1_banyo,yok,yok,yok,dusuk,yok,dusuk,yok,2_3_Milyon_TL_Arasi
Hatay,Antakya,Satilik,6_10_arasi,2,Kombi,bilinmiyor,yok,var,yok,var,yok,yok,yok,yok,yok,yok,yok,yok,yok,yok,yok,yok,yok,yok,yok,yok,yok,yok,yok,yok,yok,yok,yok,yok,yok,yok,kademe_5,iyi,iyi,iyi,125_150_m2,3_oda,orta_4_7_kat,1_banyo,yok,yok,yok,dusuk,dusuk,yok,yok,5_7_Bucuk_Milyon_TL_Arasi
Hatay,Belen,Satilik,31_ve_uzeri,bilinmiyor,Kombi_Dogalgaz,bilinmiyor,yok,var,yok,var,var,var,yok,var,var,yok,var,var,yok,var,yok,yok,yok,yok,yok,yok,yok,var,yok,yok,yok,var,yok,yok,yok,var,kademe_5,kotu,iyi,bilinmiyor,200_300_m2,7_oda_ve_ustu,orta_4_7_kat,2_banyo,yok,dusuk,yok,orta,yok,yuksek,yok,10_Milyon_TL_Ustu
Hatay,Arsuz,Satilik,1_5_arasi,En_Ust_Kat,belirtilmemis_dogalgaz,bilinmiyor,yok,var,var,yok,yok,var,yok,var,yok,yok,var,yok,yok,var,yok,yok,yok,yok,yok,yok,yok,yok,yok,yok,yok,yok,yok,yok,yok,yok,kademe_5,iyi,iyi,bilinmiyor,150_200_m2,4_oda,orta_4_7_kat,2_banyo,yok,dusuk,yok,dusuk,yok,orta,yok,4_5_Milyon_TL_Arasi
Hatay,Arsuz,Satilik,21_25_arasi,bilinmiyor,Kombi,bilinmiyor,yok,yok,yok,yok,yok,yok,yok,yok,yok,yok,yok,yok,yok,yok,yok,yok,yok,yok,yok,yok,yok,yok,yok,yok,yok,yok,yok,yok,yok,yok,kademe_5,kotu,normal,bilinmiyor,150_200_m2,4_oda,alcak_1_3_kat,2_banyo,yok,yok,yok,dusuk,yok,yok,yok,5_7_Bucuk_Milyon_TL_Arasi
Hatay,Iskenderun,Satilik,1_5_arasi,10,Klima,bilinmiyor,yok,var,var,var,yok,yok,var,yok,var,yok,var,yok,yok,var,yok,yok,yok,yok,yok,yok,yok,yok,var,yok,yok,var,yok,yok,yok,yok,kademe_5,normal,normal,iyi,75_100_m2,2_oda,yuksek_8_15_kat,1_banyo,orta,yok,yok,orta,orta,yuksek,yok,3_4_Milyon_TL_Arasi
Hatay,Defne,Satilik,1_5_arasi,Bahce,Klima,bilinmiyor,yok,yok,yok,var,yok,var,var,var,var,yok,var,yok,yok,yok,yok,yok,yok,yok,yok,yok,yok,yok,var,yok,yok,var,yok,var,yok,yok,kademe_5,bilinmiyor,bilinmiyor,bilinmiyor,150_200_m2,3_oda,alcak_1_3_kat,1_banyo,dusuk,dusuk,dusuk,orta,yuksek,yuksek,yok,10_Milyon_TL_Ustu
Kahramanmaras,Onikisubat,Satilik,26_30_arasi,bilinmiyor,Soba,bilinmiyor,yok,yok,yok,yok,yok,yok,yok,yok,yok,yok,yok,yok,yok,yok,yok,yok,yok,yok,yok,yok,yok,yok,yok,yok,yok,yok,yok,yok,yok,yok,kademe_5,kotu,kotu,bilinmiyor,200_300_m2,3_oda,alcak_1_3_kat,1_banyo,yok,yok,yok,dusuk,yok,yok,yok,2_3_Milyon_TL_Arasi
Hatay,Iskenderun,Satilik,0,4,belirtilmemis_dogalgaz,bilinmiyor,yok,var,var,yok,yok,yok,yok,var,yok,yok,var,yok,yok,yok,yok,yok,yok,yok,yok,yok,yok,yok,yok,yok,yok,yok,yok,yok,yok,yok,kademe_5,iyi,normal,normal,0_50_m2,2_oda,orta_4_7_kat,1_banyo,yok,yok,yok,orta,orta,orta,yok,2_3_Milyon_TL_Arasi
Nigde,Merkez,Satilik,6_10_arasi,1,Merkezi,bilinmiyor,yok,var,var,var,yok,var,yok,yok,var,yok,var,yok,yok,var,yok,yok,yok,yok,yok,yok,yok,yok,yok,yok,yok,var,yok,yok,yok,yok,kademe_5,kotu,kotu,normal,125_150_m2,4_oda,yuksek_8_15_kat,1_banyo,dusuk,dusuk,dusuk,dusuk,orta,yuksek,yok,3_4_Milyon_TL_Arasi
Hatay,Iskenderun,Satilik,1_5_arasi,4,Kombi,bilinmiyor,yok,var,var,var,var,var,var,var,yok,yok,yok,yok,yok,yok,yok,yok,yok,yok,yok,yok,yok,yok,yok,yok,yok,yok,yok,yok,yok,yok,kademe_5,bilinmiyor,bilinmiyor,bilinmiyor,150_200_m2,6_oda,orta_4_7_kat,3_banyo_ve_ustu,yok,yok,yok,dusuk,yok,yok,yok,5_7_Bucuk_Milyon_TL_Arasi
Erzurum,Yakutiye,Satilik,11_15_arasi,4,Merkezi,bilinmiyor,yok,var,var,var,yok,var,yok,yok,var,yok,var,var,yok,var,yok,yok,yok,yok,yok,yok,yok,yok,yok,yok,yok,var,yok,yok,yok,yok,kademe_5,normal,iyi,kotu,150_200_m2,4_oda,orta_4_7_kat,2_banyo,dusuk,dusuk,yok,dusuk,yok,yuksek,yok,2_3_Milyon_TL_Arasi
Hatay,Iskenderun,Satilik,1_5_arasi,2,Klima,bilinmiyor,yok,var,var,var,yok,var,yok,var,yok,yok,var,yok,yok,yok,yok,yok,yok,yok,yok,yok,yok,var,yok,yok,yok,yok,yok,yok,yok,yok,kademe_5,iyi,normal,kotu,100_125_m2,4_oda,orta_4_7_kat,1_banyo,yok,yok,yok,orta,orta,yuksek,yok,1_5_2_Milyon_TL_Arasi
Tokat,Merkez,Satilik,31_ve_uzeri,Giris,Kombi,bilinmiyor,yok,var,yok,var,yok,yok,yok,yok,yok,yok,yok,yok,yok,yok,yok,yok,yok,yok,yok,yok,yok,yok,yok,yok,yok,yok,yok,yok,yok,yok,kademe_5,bilinmiyor,bilinmiyor,bilinmiyor,100_125_m2,3_oda,orta_4_7_kat,1_banyo,yok,yok,yok,dusuk,yok,yok,yok,2_3_Milyon_TL_Arasi
Kahramanmaras,Onikisubat,Satilik,11_15_arasi,5,Kombi_Dogalgaz,bilinmiyor,yok,var,var,var,yok,yok,var,yok,var,yok,var,yok,yok,yok,yok,yok,yok,yok,yok,yok,yok,yok,yok,var,yok,var,yok,yok,yok,yok,kademe_5,bilinmiyor,bilinmiyor,kotu,150_200_m2,4_oda,orta_4_7_kat,2_banyo,dusuk,yok,yok,dusuk,dusuk,orta,yok,4_5_Milyon_TL_Arasi
Hatay,Payas,Satilik,6_10_arasi,1,isitma_yok,bilinmiyor,yok,var,yok,yok,yok,var,yok,yok,yok,yok,var,var,yok,yok,yok,yok,yok,yok,yok,yok,yok,yok,yok,yok,yok,var,yok,yok,yok,yok,kademe_5,iyi,kotu,bilinmiyor,150_200_m2,4_oda,orta_4_7_kat,2_banyo,yok,yok,dusuk,orta,orta,orta,yok,2_3_Milyon_TL_Arasi
Tokat,Niksar,Satilik,1_5_arasi,Ara_Kat,Dogalgaz_Sobasi,bilinmiyor,yok,var,var,var,yok,yok,yok,var,var,yok,var,yok,yok,var,yok,yok,yok,var,yok,yok,yok,yok,yok,yok,yok,var,yok,yok,yok,yok,kademe_5,normal,normal,iyi,75_100_m2,3_oda,orta_4_7_kat,bilinmiyor,yok,yok,yok,orta,orta,orta,yok,3_4_Milyon_TL_Arasi
Kahramanmaras,Onikisubat,Satilik,1_5_arasi,3,Kombi_Dogalgaz,bilinmiyor,yok,var,var,var,yok,var,yok,var,var,yok,var,yok,yok,var,yok,yok,yok,yok,yok,yok,yok,yok,yok,yok,yok,var,yok,yok,yok,yok,kademe_5,bilinmiyor,normal,normal,125_150_m2,4_oda,yuksek_8_15_kat,1_banyo,dusuk,dusuk,yok,dusuk,yok,yuksek,yok,3_4_Milyon_TL_Arasi
Hatay,Arsuz,Satilik,0,1,isitma_yok,bilinmiyor,yok,var,var,var,yok,var,yok,yok,var,yok,yok,var,yok,yok,yok,yok,yok,yok,yok,yok,yok,yok,var,yok,yok,yok,yok,yok,yok,yok,kademe_5,bilinmiyor,bilinmiyor,bilinmiyor,75_100_m2,3_oda,orta_4_7_kat,2_banyo,yok,yok,yok,dusuk,dusuk,yok,yok,1_5_Milyon_TL_Alti
Tokat,Niksar,Satilik,6_10_arasi,Ara_Kat,Dogalgaz_Sobasi,bilinmiyor,yok,var,var,var,yok,yok,yok,var,yok,yok,var,yok,yok,yok,yok,yok,yok,var,yok,yok,yok,yok,var,yok,yok,var,yok,yok,yok,yok,kademe_5,kotu,normal,normal,75_100_m2,2_oda,orta_4_7_kat,1_banyo,yok,yok,yok,orta,orta,orta,yok,2_3_Milyon_TL_Arasi
Hatay,Arsuz,Satilik,0,Bahce,Klima,bilinmiyor,yok,var,yok,yok,yok,var,var,var,var,yok,var,yok,yok,var,yok,yok,yok,yok,yok,yok,yok,yok,var,yok,yok,var,yok,var,yok,yok,kademe_5,normal,kotu,bilinmiyor,300_m2_ve_ustu,6_oda,bilinmiyor,2_banyo,yok,dusuk,yok,dusuk,orta,yuksek,yok,10_Milyon_TL_Ustu
Hatay,Kirikhan,Satilik,11_15_arasi,bilinmiyor,Klima,bilinmiyor,yok,var,var,yok,yok,var,var,var,var,yok,var,yok,yok,yok,yok,yok,yok,yok,yok,yok,yok,yok,yok,yok,yok,yok,yok,yok,yok,yok,kademe_5,bilinmiyor,bilinmiyor,bilinmiyor,150_200_m2,3_oda,alcak_1_3_kat,1_banyo,yok,dusuk,yok,dusuk,dusuk,yuksek,yok,4_5_Milyon_TL_Arasi
Bartin,Merkez,Satilik,6_10_arasi,2,Kombi_Dogalgaz,bilinmiyor,yok,var,var,var,yok,var,var,var,yok,yok,yok,var,yok,var,yok,yok,yok,yok,yok,yok,yok,yok,yok,yok,yok,yok,yok,yok,yok,yok,kademe_5,normal,normal,normal,100_125_m2,3_oda,orta_4_7_kat,2_banyo,dusuk,yok,yok,orta,orta,yuksek,yok,4_5_Milyon_TL_Arasi
Yozgat,Merkez,Satilik,11_15_arasi,Yuksek_Giris,Kombi,bilinmiyor,yok,var,var,var,yok,var,yok,var,yok,yok,var,yok,yok,var,yok,yok,yok,yok,yok,yok,yok,yok,yok,yok,yok,var,yok,yok,yok,yok,kademe_5,kotu,normal,bilinmiyor,125_150_m2,4_oda,orta_4_7_kat,1_banyo,dusuk,yok,yok,dusuk,dusuk,orta,yok,3_4_Milyon_TL_Arasi
Hatay,Antakya,Satilik,1_5_arasi,2,Merkezi,bilinmiyor,yok,var,yok,var,yok,yok,var,var,yok,yok,yok,yok,yok,yok,yok,yok,yok,yok,yok,yok,yok,yok,yok,yok,yok,yok,yok,yok,yok,yok,kademe_5,normal,kotu,normal,150_200_m2,4_oda,orta_4_7_kat,2_banyo,yok,yok,yok,dusuk,yok,yok,yok,3_4_Milyon_TL_Arasi
Yozgat,Merkez,Satilik,1_5_arasi,3,Kombi_Dogalgaz,bilinmiyor,yok,var,var,var,var,yok,yok,yok,yok,yok,var,yok,yok,yok,yok,yok,yok,yok,yok,yok,yok,yok,yok,yok,yok,var,yok,yok,yok,yok,kademe_5,normal,normal,bilinmiyor,50_75_m2,3_oda,orta_4_7_kat,1_banyo,yok,yok,dusuk,orta,dusuk,yuksek,yok,1_5_2_Milyon_TL_Arasi
Tokat,Merkez,Satilik,0,2,Kombi,bilinmiyor,yok,var,var,var,yok,yok,yok,yok,yok,yok,yok,yok,yok,yok,yok,yok,yok,yok,yok,yok,yok,yok,yok,yok,yok,yok,yok,yok,yok,yok,kademe_5,normal,normal,bilinmiyor,75_100_m2,3_oda,orta_4_7_kat,1_banyo,yok,yok,yok,dusuk,yok,yok,yok,3_4_Milyon_TL_Arasi
Hatay,Iskenderun,Satilik,6_10_arasi,13,Kombi_Dogalgaz,bilinmiyor,yok,var,var,var,yok,yok,yok,yok,var,yok,var,var,yok,var,yok,yok,yok,yok,var,yok,yok,var,yok,yok,yok,yok,yok,yok,yok,yok,kademe_5,normal,bilinmiyor,bilinmiyor,200_300_m2,5_oda,yuksek_8_15_kat,2_banyo,orta,yok,yok,orta,orta,yuksek,yok,7_Bucuk_10_Milyon_TL_Arasi
Tokat,Merkez,Satilik,6_10_arasi,5,Kombi,bilinmiyor,yok,yok,var,var,yok,yok,yok,yok,yok,yok,var,yok,yok,yok,yok,yok,yok,yok,yok,yok,yok,yok,var,yok,yok,yok,var,yok,yok,yok,kademe_5,normal,normal,bilinmiyor,100_125_m2,3_oda,orta_4_7_kat,2_banyo,yok,yok,yok,dusuk,orta,orta,yok,3_4_Milyon_TL_Arasi
Tokat,Niksar,Satilik,0,2,Kombi_Dogalgaz,bilinmiyor,yok,yok,var,var,yok,yok,yok,yok,var,yok,var,var,yok,var,yok,yok,yok,var,yok,yok,yok,yok,yok,yok,yok,yok,yok,yok,yok,yok,kademe_5,normal,normal,kotu,150_200_m2,4_oda,orta_4_7_kat,2_banyo,yok,yok,yok,dusuk,dusuk,orta,yok,4_5_Milyon_TL_Arasi
Nigde,Merkez,Satilik,6_10_arasi,3,Merkezi,bilinmiyor,yok,var,var,var,yok,var,yok,var,var,yok,var,var,yok,var,yok,yok,yok,yok,var,yok,yok,yok,var,yok,yok,var,yok,yok,yok,yok,kademe_5,bilinmiyor,iyi,bilinmiyor,200_300_m2,5_oda,yuksek_8_15_kat,2_banyo,dusuk,orta,dusuk,dusuk,yuksek,yuksek,yok,7_Bucuk_10_Milyon_TL_Arasi
Hatay,Iskenderun,Satilik,0,2,Klima,bilinmiyor,yok,var,var,var,var,var,var,var,var,yok,var,yok,yok,yok,yok,yok,yok,yok,yok,yok,yok,yok,yok,yok,yok,yok,yok,yok,yok,yok,kademe_5,kotu,normal,bilinmiyor,50_75_m2,2_oda,orta_4_7_kat,1_banyo,dusuk,dusuk,dusuk,orta,yuksek,yuksek,yok,2_3_Milyon_TL_Arasi
Tokat,Niksar,Satilik,16_20_arasi,bilinmiyor,Soba,bilinmiyor,yok,yok,yok,yok,yok,yok,yok,yok,yok,yok,yok,yok,yok,yok,yok,yok,yok,yok,yok,yok,yok,yok,yok,yok,yok,yok,yok,yok,yok,yok,kademe_5,kotu,normal,bilinmiyor,200_300_m2,7_oda_ve_ustu,alcak_1_3_kat,2_banyo,yok,yok,yok,dusuk,yok,yok,yok,3_4_Milyon_TL_Arasi
Hatay,Iskenderun,Satilik,21_25_arasi,2,Klima,bilinmiyor,yok,var,var,var,yok,yok,yok,yok,yok,yok,yok,yok,yok,yok,yok,yok,yok,yok,yok,yok,yok,yok,yok,yok,yok,yok,yok,yok,yok,yok,kademe_5,kotu,bilinmiyor,kotu,150_200_m2,4_oda,orta_4_7_kat,1_banyo,yok,yok,yok,dusuk,orta,dusuk,yok,3_4_Milyon_TL_Arasi
Hatay,Dortyol,Satilik,16_20_arasi,bilinmiyor,Soba,bilinmiyor,yok,var,yok,var,yok,var,var,var,var,yok,var,yok,yok,yok,yok,yok,yok,yok,yok,yok,yok,var,var,yok,yok,yok,yok,yok,yok,yok,kademe_5,bilinmiyor,bilinmiyor,bilinmiyor,125_150_m2,3_oda,alcak_1_3_kat,1_banyo,yok,yok,yok,dusuk,dusuk,orta,yok,3_4_Milyon_TL_Arasi
Hatay,Yayladagi,Satilik,1_5_arasi,bilinmiyor,Soba,bilinmiyor,yok,yok,yok,var,var,var,var,var,var,yok,yok,yok,yok,yok,yok,yok,yok,yok,yok,yok,yok,yok,yok,yok,yok,yok,yok,yok,yok,yok,kademe_5,normal,normal,normal,300_m2_ve_ustu,4_oda,alcak_1_3_kat,2_banyo,yok,yok,yok,dusuk,yok,yok,yok,5_7_Bucuk_Milyon_TL_Arasi
Hatay,Antakya,Satilik,0,3,Kombi_Dogalgaz,bilinmiyor,yok,var,var,var,yok,var,yok,yok,var,yok,var,yok,yok,yok,yok,yok,yok,yok,yok,yok,yok,yok,yok,yok,yok,var,yok,yok,yok,yok,kademe_5,iyi,iyi,iyi,125_150_m2,4_oda,orta_4_7_kat,1_banyo,dusuk,yok,yok,dusuk,yok,yuksek,yok,3_4_Milyon_TL_Arasi
Hatay,Defne,Satilik,11_15_arasi,2,Kombi_Dogalgaz,bilinmiyor,yok,yok,yok,var,yok,yok,yok,yok,yok,yok,yok,yok,yok,yok,yok,yok,yok,yok,yok,yok,yok,yok,yok,yok,yok,yok,yok,yok,yok,yok,kademe_5,normal,normal,bilinmiyor,150_200_m2,4_oda,orta_4_7_kat,1_banyo,yok,yok,yok,dusuk,yok,yok,yok,3_4_Milyon_TL_Arasi
Hatay,Iskenderun,Satilik,31_ve_uzeri,3,Kombi_Dogalgaz,bilinmiyor,yok,yok,yok,yok,yok,yok,yok,yok,yok,yok,yok,yok,yok,yok,yok,yok,yok,yok,yok,yok,yok,yok,yok,yok,yok,yok,yok,yok,yok,yok,kademe_5,kotu,normal,bilinmiyor,125_150_m2,4_oda,yuksek_8_15_kat,1_banyo,yok,yok,yok,dusuk,yok,yok,yok,3_4_Milyon_TL_Arasi
Yozgat,Merkez,Satilik,1_5_arasi,1,Kombi_Dogalgaz,bilinmiyor,yok,yok,yok,yok,yok,var,var,var,yok,yok,yok,yok,yok,yok,yok,yok,yok,yok,yok,yok,yok,yok,yok,yok,yok,yok,yok,yok,yok,yok,kademe_5,bilinmiyor,normal,normal,75_100_m2,3_oda,orta_4_7_kat,1_banyo,yok,yok,yok,yok,yok,yok,yok,2_3_Milyon_TL_Arasi
Hatay,Antakya,Satilik,11_15_arasi,4,Kombi,bilinmiyor,yok,var,var,yok,yok,yok,var,var,yok,yok,var,yok,yok,yok,yok,yok,yok,yok,yok,yok,yok,yok,yok,yok,yok,var,yok,yok,yok,yok,kademe_5,bilinmiyor,bilinmiyor,bilinmiyor,150_200_m2,4_oda,orta_4_7_kat,1_banyo,yok,yok,dusuk,dusuk,orta,orta,yok,3_4_Milyon_TL_Arasi
Tokat,Merkez,Satilik,26_30_arasi,4,Kombi_Dogalgaz,bilinmiyor,yok,yok,yok,yok,yok,var,var,var,var,yok,yok,yok,yok,yok,yok,yok,yok,yok,yok,yok,yok,yok,yok,yok,yok,yok,yok,yok,yok,yok,kademe_5,normal,kotu,bilinmiyor,100_125_m2,3_oda,orta_4_7_kat,1_banyo,yok,yok,yok,dusuk,yok,yok,yok,3_4_Milyon_TL_Arasi
Hatay,Dortyol,Satilik,26_30_arasi,1,Klima,bilinmiyor,yok,var,yok,yok,yok,yok,yok,yok,yok,yok,yok,yok,yok,yok,yok,yok,yok,yok,yok,yok,yok,yok,yok,yok,yok,yok,yok,yok,yok,yok,kademe_5,kotu,normal,kotu,125_150_m2,3_oda,orta_4_7_kat,1_banyo,yok,yok,yok,dusuk,yok,dusuk,yok,1_5_2_Milyon_TL_Arasi
Hatay,Defne,Satilik,6_10_arasi,Yuksek_Giris,Kombi_Dogalgaz,bilinmiyor,yok,var,var,var,yok,yok,var,var,var,yok,var,yok,yok,var,yok,yok,yok,yok,yok,yok,yok,yok,var,yok,yok,var,yok,yok,yok,yok,kademe_5,normal,kotu,bilinmiyor,100_125_m2,3_oda,orta_4_7_kat,1_banyo,dusuk,dusuk,yok,orta,orta,yuksek,yok,1_5_2_Milyon_TL_Arasi
Hatay,Iskenderun,Satilik,31_ve_uzeri,2,belirtilmemis_elektrik,bilinmiyor,yok,var,var,yok,yok,var,yok,var,yok,yok,yok,yok,yok,yok,yok,yok,yok,yok,yok,yok,yok,yok,yok,yok,yok,var,yok,yok,yok,yok,kademe_5,kotu,kotu,kotu,100_125_m2,3_oda,orta_4_7_kat,1_banyo,yok,yok,yok,dusuk,orta,dusuk,yok,2_3_Milyon_TL_Arasi
Kahramanmaras,Dulkadiroglu,Satilik,21_25_arasi,bilinmiyor,Soba,bilinmiyor,yok,var,yok,var,yok,var,var,var,var,yok,yok,yok,yok,yok,yok,yok,yok,yok,yok,yok,yok,yok,yok,yok,yok,var,yok,yok,yok,yok,kademe_5,normal,bilinmiyor,bilinmiyor,150_200_m2,4_oda,orta_4_7_kat,1_banyo,yok,yok,yok,dusuk,dusuk,yok,yok,5_7_Bucuk_Milyon_TL_Arasi
Kahramanmaras,Onikisubat,Satilik,21_25_arasi,bilinmiyor,Kombi,bilinmiyor,yok,var,yok,yok,yok,var,yok,var,var,yok,yok,yok,yok,var,yok,yok,yok,yok,yok,yok,yok,yok,var,yok,yok,var,yok,yok,yok,yok,kademe_5,kotu,bilinmiyor,bilinmiyor,150_200_m2,5_oda,alcak_1_3_kat,1_banyo,yok,dusuk,dusuk,dusuk,yok,yuksek,yok,5_7_Bucuk_Milyon_TL_Arasi
Nigde,Merkez,Satilik,6_10_arasi,5,Merkezi,bilinmiyor,yok,var,var,var,yok,var,yok,yok,var,yok,yok,var,yok,yok,yok,yok,yok,yok,yok,yok,yok,yok,yok,yok,yok,var,yok,yok,yok,yok,kademe_5,normal,normal,bilinmiyor,150_200_m2,4_oda,yuksek_8_15_kat,2_banyo,dusuk,yok,yok,dusuk,dusuk,yuksek,yok,4_5_Milyon_TL_Arasi
Hatay,Iskenderun,Satilik,11_15_arasi,Yuksek_Giris,Klima,bilinmiyor,yok,var,var,var,yok,var,var,var,var,yok,var,yok,yok,var,yok,yok,yok,yok,yok,yok,yok,var,var,yok,yok,var,yok,yok,yok,yok,kademe_5,kotu,kotu,kotu,125_150_m2,4_oda,orta_4_7_kat,1_banyo,yok,dusuk,dusuk,orta,yuksek,yuksek,yok,1_5_2_Milyon_TL_Arasi
Hatay,Iskenderun,Satilik,11_15_arasi,Zemin,Kombi_Dogalgaz,bilinmiyor,yok,var,yok,yok,yok,var,var,var,var,yok,yok,yok,yok,yok,yok,yok,yok,yok,yok,yok,yok,yok,yok,yok,yok,yok,yok,yok,yok,yok,kademe_5,normal,normal,bilinmiyor,150_200_m2,4_oda,yuksek_8_15_kat,2_banyo,yok,yok,yok,dusuk,yok,yok,yok,4_5_Milyon_TL_Arasi
Tokat,Niksar,Satilik,6_10_arasi,4,Kombi_Dogalgaz,bilinmiyor,yok,var,var,var,yok,yok,yok,var,yok,yok,var,var,yok,var,yok,yok,yok,yok,yok,yok,yok,yok,yok,yok,yok,yok,yok,yok,yok,yok,kademe_5,normal,bilinmiyor,kotu,150_200_m2,5_oda,orta_4_7_kat,2_banyo,dusuk,dusuk,dusuk,dusuk,orta,yuksek,yok,4_5_Milyon_TL_Arasi
Hatay,Dortyol,Satilik,6_10_arasi,5,Kombi,bilinmiyor,yok,var,var,var,yok,var,var,var,yok,yok,var,var,yok,var,yok,yok,yok,yok,yok,yok,yok,yok,var,yok,yok,yok,yok,yok,yok,yok,kademe_5,bilinmiyor,bilinmiyor,bilinmiyor,150_200_m2,4_oda,orta_4_7_kat,2_banyo,dusuk,dusuk,yok,dusuk,orta,yuksek,yok,4_5_Milyon_TL_Arasi
Hatay,Iskenderun,Satilik,6_10_arasi,Yuksek_Giris,Kombi,bilinmiyor,yok,var,var,var,yok,yok,yok,yok,yok,yok,var,yok,yok,yok,yok,yok,yok,yok,yok,yok,yok,yok,yok,yok,yok,yok,yok,yok,yok,yok,kademe_5,iyi,normal,bilinmiyor,200_300_m2,4_oda,yuksek_8_15_kat,1_banyo,dusuk,dusuk,yok,dusuk,orta,orta,yok,3_4_Milyon_TL_Arasi
Kahramanmaras,Dulkadiroglu,Satilik,1_5_arasi,Giris,Merkezi,bilinmiyor,yok,yok,var,var,yok,yok,yok,var,yok,yok,yok,yok,yok,yok,yok,yok,yok,yok,yok,yok,yok,yok,yok,yok,yok,var,yok,yok,yok,yok,kademe_5,normal,normal,normal,50_75_m2,3_oda,orta_4_7_kat,1_banyo,yok,yok,yok,dusuk,dusuk,orta,yok,2_3_Milyon_TL_Arasi
Kahramanmaras,Goksun,Satilik,11_15_arasi,2,Kombi_Dogalgaz,bilinmiyor,yok,yok,var,yok,yok,yok,var,yok,var,yok,yok,yok,yok,yok,yok,yok,yok,yok,yok,yok,yok,yok,yok,yok,yok,yok,yok,yok,yok,yok,kademe_5,kotu,kotu,kotu,150_200_m2,4_oda,orta_4_7_kat,1_banyo,yok,yok,yok,dusuk,yok,yok,yok,3_4_Milyon_TL_Arasi
Hatay,Iskenderun,Satilik,1_5_arasi,3,Klima,bilinmiyor,yok,yok,var,var,var,yok,yok,yok,yok,yok,yok,yok,yok,yok,yok,yok,yok,yok,yok,yok,yok,yok,yok,yok,yok,yok,yok,yok,yok,yok,kademe_5,kotu,kotu,kotu,0_50_m2,2_oda,orta_4_7_kat,1_banyo,yok,yok,yok,dusuk,yok,dusuk,yok,1_5_2_Milyon_TL_Arasi
Hatay,Dortyol,Satilik,0,4,Klima,bilinmiyor,yok,var,var,yok,var,yok,yok,yok,var,yok,var,yok,yok,yok,yok,yok,yok,yok,yok,yok,yok,yok,yok,yok,yok,yok,yok,yok,yok,yok,kademe_5,iyi,normal,iyi,50_75_m2,2_oda,orta_4_7_kat,1_banyo,yok,yok,yok,dusuk,yok,yuksek,yok,2_3_Milyon_TL_Arasi
Kahramanmaras,Dulkadiroglu,Satilik,6_10_arasi,2,Yerden_Isitma,bilinmiyor,yok,var,var,var,yok,yok,var,var,var,yok,var,var,yok,var,yok,yok,yok,yok,yok,yok,yok,yok,var,yok,yok,var,var,yok,yok,yok,kademe_5,iyi,iyi,bilinmiyor,125_150_m2,3_oda,orta_4_7_kat,1_banyo,orta,dusuk,yok,orta,orta,yuksek,yok,3_4_Milyon_TL_Arasi
Hatay,Dortyol,Satilik,21_25_arasi,Bahce,Soba,bilinmiyor,yok,var,yok,yok,yok,var,var,var,var,yok,yok,yok,yok,yok,yok,yok,yok,yok,yok,yok,yok,yok,yok,yok,yok,yok,yok,yok,yok,yok,kademe_5,normal,normal,bilinmiyor,150_200_m2,4_oda,bilinmiyor,1_banyo,yok,yok,yok,dusuk,dusuk,dusuk,yok,5_7_Bucuk_Milyon_TL_Arasi
Tokat,Niksar,Satilik,0,Ara_Kat,Dogalgaz_Sobasi,bilinmiyor,yok,var,var,var,yok,yok,yok,var,yok,yok,var,yok,yok,var,yok,yok,yok,var,yok,yok,yok,yok,var,yok,yok,var,yok,yok,yok,yok,kademe_5,iyi,bilinmiyor,iyi,50_75_m2,2_oda,orta_4_7_kat,1_banyo,yok,yok,yok,orta,orta,yuksek,yok,2_3_Milyon_TL_Arasi
Erzurum,Yakutiye,Satilik,11_15_arasi,1,Kombi,bilinmiyor,yok,var,var,var,yok,yok,yok,yok,yok,yok,yok,yok,yok,yok,yok,yok,yok,yok,yok,yok,yok,yok,yok,yok,yok,var,yok,yok,yok,yok,kademe_5,normal,kotu,bilinmiyor,150_200_m2,4_oda,yuksek_8_15_kat,2_banyo,yok,yok,yok,dusuk,dusuk,yok,yok,3_4_Milyon_TL_Arasi
Hatay,Dortyol,Satilik,6_10_arasi,3,Kombi,bilinmiyor,yok,var,var,var,yok,yok,var,var,yok,yok,var,var,yok,yok,yok,yok,yok,yok,yok,yok,yok,yok,yok,yok,yok,yok,yok,yok,yok,yok,kademe_5,iyi,bilinmiyor,kotu,150_200_m2,5_oda,orta_4_7_kat,2_banyo,dusuk,dusuk,dusuk,orta,orta,yuksek,yok,5_7_Bucuk_Milyon_TL_Arasi
Tokat,Niksar,Satilik,1_5_arasi,2,Yerden_Isitma,bilinmiyor,yok,var,var,var,yok,yok,yok,var,yok,yok,var,yok,yok,var,yok,yok,yok,yok,yok,yok,yok,yok,yok,yok,yok,yok,yok,yok,yok,yok,kademe_5,normal,iyi,kotu,150_200_m2,4_oda,orta_4_7_kat,1_banyo,yok,yok,yok,dusuk,dusuk,orta,yok,4_5_Milyon_TL_Arasi
Hatay,Dortyol,Satilik,11_15_arasi,1,Kombi_Dogalgaz,bilinmiyor,yok,var,var,var,yok,var,yok,var,var,yok,var,var,yok,var,yok,yok,yok,yok,yok,yok,yok,yok,yok,yok,yok,yok,yok,yok,yok,yok,kademe_5,normal,iyi,bilinmiyor,200_300_m2,5_oda,orta_4_7_kat,2_banyo,dusuk,yok,yok,dusuk,yok,yuksek,yok,4_5_Milyon_TL_Arasi
Tokat,Merkez,Satilik,16_20_arasi,3,Kombi_Dogalgaz,bilinmiyor,yok,yok,var,var,yok,var,yok,var,yok,yok,yok,yok,yok,yok,yok,yok,yok,yok,yok,yok,yok,yok,yok,yok,yok,yok,yok,yok,yok,yok,kademe_5,normal,normal,normal,100_125_m2,3_oda,orta_4_7_kat,1_banyo,yok,yok,yok,dusuk,yok,yok,yok,4_5_Milyon_TL_Arasi
Hatay,Iskenderun,Satilik,11_15_arasi,Bahce,isitma_yok,bilinmiyor,yok,var,yok,yok,yok,yok,yok,yok,yok,yok,yok,yok,yok,yok,yok,yok,yok,yok,yok,yok,yok,yok,yok,yok,yok,yok,yok,yok,yok,yok,kademe_5,normal,kotu,kotu,300_m2_ve_ustu,5_oda,bilinmiyor,2_banyo,yok,yok,yok,dusuk,yok,yok,yok,7_Bucuk_10_Milyon_TL_Arasi
Osmaniye,Merkez,Satilik,6_10_arasi,2,Kombi,bilinmiyor,yok,var,yok,yok,yok,yok,var,yok,var,yok,var,yok,yok,yok,yok,yok,yok,yok,yok,yok,yok,yok,yok,yok,yok,var,yok,yok,yok,yok,kademe_5,iyi,iyi,kotu,150_200_m2,4_oda,orta_4_7_kat,1_banyo,yok,yok,yok,dusuk,orta,orta,yok,2_3_Milyon_TL_Arasi
Hatay,Belen,Satilik,6_10_arasi,1,Kombi,bilinmiyor,yok,var,var,var,yok,var,yok,var,var,yok,var,var,yok,yok,yok,yok,yok,yok,yok,yok,yok,yok,var,yok,yok,var,yok,yok,yok,yok,kademe_5,iyi,bilinmiyor,bilinmiyor,150_200_m2,4_oda,orta_4_7_kat,2_banyo,yok,dusuk,yok,orta,orta,yuksek,yok,5_7_Bucuk_Milyon_TL_Arasi
Hatay,Iskenderun,Satilik,11_15_arasi,3,Klima,bilinmiyor,yok,var,yok,yok,yok,yok,var,var,yok,yok,yok,yok,yok,yok,yok,yok,yok,yok,yok,yok,yok,yok,var,yok,yok,yok,yok,yok,yok,yok,kademe_5,normal,normal,bilinmiyor,75_100_m2,3_oda,orta_4_7_kat,1_banyo,yok,yok,yok,orta,yuksek,dusuk,yok,2_3_Milyon_TL_Arasi
Kahramanmaras,Onikisubat,Satilik,1_5_arasi,1,Merkezi,bilinmiyor,yok,var,var,var,yok,yok,var,yok,var,yok,var,var,yok,var,yok,yok,yok,yok,yok,yok,yok,yok,var,yok,yok,var,yok,yok,yok,yok,kademe_5,iyi,normal,kotu,125_150_m2,4_oda,yuksek_8_15_kat,2_banyo,dusuk,dusuk,dusuk,dusuk,yuksek,yuksek,yok,3_4_Milyon_TL_Arasi
Tokat,Turhal,Satilik,11_15_arasi,bilinmiyor,Soba,bilinmiyor,yok,yok,yok,yok,yok,yok,yok,yok,yok,yok,var,yok,yok,yok,yok,yok,yok,yok,yok,yok,yok,yok,var,yok,yok,yok,yok,yok,yok,yok,kademe_5,kotu,bilinmiyor,bilinmiyor,125_150_m2,4_oda,alcak_1_3_kat,1_banyo,yok,yok,yok,dusuk,yok,yok,yok,10_Milyon_TL_Ustu
Nigde,Merkez,Satilik,6_10_arasi,3,Merkezi,bilinmiyor,yok,var,var,var,yok,yok,var,var,yok,yok,var,var,yok,var,yok,yok,yok,yok,yok,yok,yok,yok,var,yok,yok,var,yok,yok,yok,yok,kademe_5,bilinmiyor,bilinmiyor,bilinmiyor,200_300_m2,5_oda,yuksek_8_15_kat,2_banyo,dusuk,dusuk,dusuk,dusuk,yuksek,yuksek,yok,5_7_Bucuk_Milyon_TL_Arasi
Hatay,Arsuz,Satilik,6_10_arasi,Ara_Kat,Klima,bilinmiyor,yok,yok,yok,yok,yok,var,var,var,var,yok,yok,yok,yok,yok,yok,yok,yok,yok,yok,yok,yok,yok,var,yok,yok,var,yok,yok,yok,yok,kademe_5,normal,bilinmiyor,kotu,100_125_m2,3_oda,orta_4_7_kat,1_banyo,yok,yok,yok,dusuk,orta,dusuk,yok,4_5_Milyon_TL_Arasi
Kahramanmaras,Onikisubat,Satilik,6_10_arasi,5,Kombi,bilinmiyor,yok,yok,var,var,yok,var,yok,yok,var,yok,yok,yok,yok,yok,yok,yok,yok,yok,yok,yok,yok,yok,var,yok,yok,var,yok,yok,yok,yok,kademe_5,normal,normal,normal,75_100_m2,2_oda,orta_4_7_kat,1_banyo,yok,yok,dusuk,orta,yuksek,orta,yok,1_5_2_Milyon_TL_Arasi
Yozgat,Merkez,Satilik,0,3,Kombi,bilinmiyor,yok,var,var,var,yok,yok,yok,yok,var,yok,yok,yok,yok,yok,yok,yok,yok,yok,yok,yok,yok,yok,yok,yok,yok,yok,yok,yok,yok,yok,kademe_5,iyi,bilinmiyor,bilinmiyor,50_75_m2,3_oda,orta_4_7_kat,1_banyo,yok,yok,yok,yok,yok,yok,yok,1_5_2_Milyon_TL_Arasi
Tokat,Niksar,Satilik,21_25_arasi,4,Kombi_Dogalgaz,bilinmiyor,yok,var,yok,var,yok,yok,yok,yok,yok,yok,yok,yok,yok,var,yok,yok,yok,yok,yok,yok,yok,yok,yok,yok,yok,var,yok,yok,yok,yok,kademe_5,kotu,kotu,kotu,125_150_m2,4_oda,orta_4_7_kat,1_banyo,yok,yok,yok,dusuk,yok,orta,yok,2_3_Milyon_TL_Arasi
Tokat,Merkez,Satilik,6_10_arasi,Giris,Kombi,bilinmiyor,yok,yok,var,var,yok,yok,yok,yok,yok,yok,yok,yok,yok,yok,yok,yok,yok,yok,yok,yok,yok,yok,yok,yok,yok,yok,yok,yok,yok,yok,kademe_5,kotu,bilinmiyor,bilinmiyor,100_125_m2,3_oda,orta_4_7_kat,1_banyo,yok,yok,yok,dusuk,yok,yok,yok,2_3_Milyon_TL_Arasi
Nigde,Merkez,Satilik,16_20_arasi,3,Merkezi,bilinmiyor,yok,var,var,yok,yok,var,yok,var,yok,yok,var,yok,yok,yok,yok,yok,yok,yok,yok,yok,yok,yok,yok,yok,yok,var,yok,yok,yok,yok,kademe_5,bilinmiyor,iyi,bilinmiyor,125_150_m2,4_oda,orta_4_7_kat,1_banyo,dusuk,yok,yok,dusuk,orta,yok,yok,3_4_Milyon_TL_Arasi
Nigde,Camardi,Satilik,1_5_arasi,bilinmiyor,Soba,bilinmiyor,yok,var,yok,var,var,var,yok,var,var,yok,var,yok,yok,var,yok,yok,yok,yok,yok,yok,yok,yok,yok,yok,yok,var,yok,yok,yok,yok,kademe_5,kotu,normal,normal,100_125_m2,3_oda,alcak_1_3_kat,3_banyo_ve_ustu,yok,yok,yok,dusuk,yok,yuksek,yok,3_4_Milyon_TL_Arasi
Yozgat,Sorgun,Satilik,21_25_arasi,Bahce,Kombi,bilinmiyor,yok,var,yok,yok,yok,yok,yok,yok,yok,yok,yok,yok,yok,yok,yok,yok,yok,yok,yok,yok,yok,yok,yok,yok,yok,yok,yok,yok,yok,yok,kademe_5,bilinmiyor,bilinmiyor,kotu,300_m2_ve_ustu,4_oda,bilinmiyor,1_banyo,yok,yok,yok,dusuk,yok,yok,yok,5_7_Bucuk_Milyon_TL_Arasi
Hatay,Reyhanli,Satilik,26_30_arasi,1,bilinmiyor,bilinmiyor,yok,var,yok,yok,yok,yok,yok,yok,yok,yok,yok,yok,yok,yok,yok,yok,yok,yok,yok,yok,yok,yok,yok,yok,yok,yok,yok,yok,yok,yok,kademe_5,bilinmiyor,bilinmiyor,bilinmiyor,150_200_m2,5_oda,alcak_1_3_kat,1_banyo,yok,yok,yok,dusuk,yok,yok,yok,2_3_Milyon_TL_Arasi
Hatay,Iskenderun,Satilik,16_20_arasi,1,Klima,bilinmiyor,yok,var,yok,yok,yok,var,var,yok,yok,yok,yok,yok,yok,var,yok,yok,yok,yok,yok,yok,var,yok,yok,yok,yok,yok,var,yok,yok,yok,kademe_5,kotu,kotu,bilinmiyor,125_150_m2,3_oda,orta_4_7_kat,1_banyo,yok,yok,yok,dusuk,dusuk,yuksek,yok,2_3_Milyon_TL_Arasi
Erzurum,Yakutiye,Satilik,26_30_arasi,4,Kombi_Dogalgaz,bilinmiyor,yok,var,var,yok,yok,var,var,yok,yok,yok,var,yok,yok,yok,yok,yok,yok,yok,yok,yok,yok,yok,yok,yok,yok,var,yok,yok,yok,yok,kademe_5,bilinmiyor,bilinmiyor,bilinmiyor,150_200_m2,4_oda,yuksek_8_15_kat,2_banyo,yok,yok,yok,yok,orta,orta,yok,2_3_Milyon_TL_Arasi
Nigde,Merkez,Satilik,11_15_arasi,7,Merkezi,bilinmiyor,yok,var,var,var,yok,var,var,var,yok,yok,var,var,yok,var,yok,yok,yok,yok,yok,yok,yok,yok,var,yok,yok,var,yok,yok,yok,yok,kademe_5,bilinmiyor,bilinmiyor,bilinmiyor,200_300_m2,5_oda,yuksek_8_15_kat,2_banyo,dusuk,yok,dusuk,dusuk,orta,yuksek,yok,7_Bucuk_10_Milyon_TL_Arasi
Hatay,Arsuz,Satilik,11_15_arasi,4,Soba,bilinmiyor,yok,yok,yok,yok,yok,yok,yok,yok,yok,yok,yok,yok,yok,yok,yok,yok,yok,yok,yok,yok,yok,yok,yok,yok,yok,yok,yok,yok,yok,yok,kademe_5,normal,bilinmiyor,bilinmiyor,100_125_m2,4_oda,yuksek_8_15_kat,1_banyo,yok,yok,yok,dusuk,yok,yok,yok,3_4_Milyon_TL_Arasi
Tokat,Merkez,Satilik,0,Ara_Kat,Kombi_Dogalgaz,bilinmiyor,yok,var,yok,var,yok,yok,yok,var,yok,yok,yok,yok,yok,yok,yok,yok,yok,yok,yok,yok,yok,yok,yok,yok,yok,yok,yok,yok,yok,yok,kademe_5,iyi,bilinmiyor,iyi,0_50_m2,2_oda,orta_4_7_kat,1_banyo,yok,yok,yok,dusuk,yok,yok,yok,2_3_Milyon_TL_Arasi
Hatay,Belen,Satilik,16_20_arasi,bilinmiyor,Kombi_Dogalgaz,bilinmiyor,yok,var,var,var,yok,var,var,var,var,yok,var,yok,yok,var,yok,yok,yok,yok,yok,yok,yok,yok,var,yok,yok,var,yok,var,yok,yok,kademe_5,kotu,bilinmiyor,bilinmiyor,200_300_m2,5_oda,alcak_1_3_kat,1_banyo,yok,dusuk,yok,orta,yok,yuksek,yok,10_Milyon_TL_Ustu
Bartin,Amasra,Satilik,21_25_arasi,Ara_Kat,Kombi_Dogalgaz,bilinmiyor,yok,var,yok,yok,yok,yok,yok,yok,yok,yok,yok,yok,yok,yok,yok,yok,yok,yok,yok,yok,yok,yok,yok,yok,yok,yok,yok,yok,yok,yok,kademe_5,normal,kotu,bilinmiyor,75_100_m2,3_oda,orta_4_7_kat,1_banyo,yok,yok,yok,dusuk,yok,yok,yok,2_3_Milyon_TL_Arasi
Hatay,Iskenderun,Satilik,6_10_arasi,2,belirtilmemis_elektrik,bilinmiyor,yok,yok,yok,yok,yok,yok,yok,yok,yok,yok,yok,yok,yok,yok,yok,yok,yok,yok,yok,yok,yok,yok,yok,yok,yok,yok,yok,yok,yok,yok,kademe_5,normal,kotu,kotu,75_100_m2,3_oda,orta_4_7_kat,1_banyo,yok,yok,yok,dusuk,yok,yok,yok,1_5_2_Milyon_TL_Arasi
Tokat,Zile,Satilik,1_5_arasi,3,Kombi,bilinmiyor,yok,var,var,var,yok,yok,yok,var,yok,yok,yok,yok,yok,yok,yok,yok,yok,yok,yok,yok,yok,yok,yok,yok,yok,yok,yok,yok,yok,yok,kademe_5,bilinmiyor,bilinmiyor,kotu,125_150_m2,4_oda,yuksek_8_15_kat,2_banyo,yok,yok,yok,yok,yok,yok,yok,3_4_Milyon_TL_Arasi
Hatay,Payas,Satilik,11_15_arasi,2,Kombi,bilinmiyor,yok,var,var,var,yok,var,var,var,var,yok,var,var,yok,yok,yok,yok,yok,yok,yok,yok,yok,yok,yok,yok,yok,var,yok,yok,yok,yok,kademe_5,normal,normal,bilinmiyor,125_150_m2,4_oda,orta_4_7_kat,2_banyo,yok,dusuk,dusuk,orta,orta,orta,yok,3_4_Milyon_TL_Arasi
Hatay,Dortyol,Satilik,0,3,Kombi_Dogalgaz,bilinmiyor,yok,var,var,yok,yok,var,yok,var,yok,yok,var,var,yok,yok,yok,yok,yok,yok,yok,yok,yok,yok,yok,yok,yok,var,yok,yok,yok,yok,kademe_5,iyi,iyi,iyi,100_125_m2,3_oda,orta_4_7_kat,2_banyo,dusuk,dusuk,yok,dusuk,dusuk,yuksek,yok,4_5_Milyon_TL_Arasi
Nigde,Merkez,Satilik,26_30_arasi,4,Kombi,bilinmiyor,yok,var,yok,var,yok,yok,yok,yok,yok,yok,var,yok,yok,yok,yok,yok,yok,yok,yok,yok,yok,yok,yok,yok,yok,yok,yok,yok,yok,yok,kademe_5,normal,kotu,bilinmiyor,125_150_m2,3_oda,orta_4_7_kat,1_banyo,yok,yok,yok,dusuk,dusuk,yok,yok,2_3_Milyon_TL_Arasi
Hatay,Dortyol,Satilik,1_5_arasi,10,Kombi,bilinmiyor,yok,var,var,var,yok,var,var,var,var,yok,var,var,yok,var,yok,yok,yok,yok,yok,yok,yok,var,var,yok,yok,var,var,yok,yok,yok,kademe_5,kotu,bilinmiyor,bilinmiyor,300_m2_ve_ustu,7_oda_ve_ustu,yuksek_8_15_kat,3_banyo_ve_ustu,dusuk,orta,dusuk,orta,yuksek,yuksek,yok,7_Bucuk_10_Milyon_TL_Arasi
Tokat,Merkez,Satilik,31_ve_uzeri,4,Kombi,bilinmiyor,yok,var,var,var,yok,var,var,var,var,yok,var,yok,yok,yok,yok,yok,yok,yok,yok,yok,yok,yok,var,yok,yok,var,yok,yok,yok,yok,kademe_5,normal,bilinmiyor,bilinmiyor,100_125_m2,3_oda,orta_4_7_kat,1_banyo,yok,yok,yok,dusuk,orta,yuksek,yok,3_4_Milyon_TL_Arasi
Hatay,Iskenderun,Satilik,16_20_arasi,En_Ust_Kat,Kombi_Dogalgaz,bilinmiyor,yok,var,var,var,yok,var,yok,var,var,yok,var,yok,yok,yok,yok,yok,yok,yok,var,yok,yok,yok,yok,yok,yok,var,yok,yok,yok,yok,kademe_5,kotu,normal,kotu,150_200_m2,4_oda,orta_4_7_kat,1_banyo,orta,dusuk,dusuk,orta,orta,yuksek,yok,4_5_Milyon_TL_Arasi
Hatay,Iskenderun,Satilik,21_25_arasi,1,Klima,bilinmiyor,yok,var,yok,yok,yok,yok,yok,yok,yok,yok,yok,yok,yok,yok,yok,yok,yok,yok,yok,yok,yok,yok,yok,yok,yok,yok,yok,yok,yok,yok,kademe_5,kotu,iyi,bilinmiyor,150_200_m2,4_oda,orta_4_7_kat,1_banyo,yok,yok,yok,dusuk,yok,dusuk,yok,3_4_Milyon_TL_Arasi
Tokat,Merkez,Satilik,11_15_arasi,14,Merkezi,bilinmiyor,yok,var,var,var,yok,yok,yok,var,var,yok,var,var,yok,var,yok,yok,yok,yok,yok,yok,yok,var,var,yok,yok,var,yok,yok,yok,yok,kademe_5,normal,normal,bilinmiyor,150_200_m2,5_oda,cok_yuksek_16_ustu_kat,2_banyo,dusuk,yok,yok,dusuk,orta,yuksek,yok,5_7_Bucuk_Milyon_TL_Arasi
Hatay,Arsuz,Satilik,0,3,Kombi,bilinmiyor,yok,var,var,var,yok,var,var,var,var,yok,var,var,yok,yok,yok,yok,yok,yok,yok,yok,yok,yok,var,yok,yok,yok,yok,yok,yok,yok,kademe_5,bilinmiyor,bilinmiyor,bilinmiyor,125_150_m2,4_oda,orta_4_7_kat,2_banyo,dusuk,yok,dusuk,orta,orta,yuksek,yok,3_4_Milyon_TL_Arasi
Bartin,Merkez,Satilik,16_20_arasi,3,Kombi,bilinmiyor,yok,var,var,var,yok,yok,yok,yok,yok,yok,yok,yok,yok,yok,yok,yok,yok,yok,yok,yok,yok,yok,yok,yok,yok,yok,yok,yok,yok,yok,kademe_5,kotu,kotu,kotu,150_200_m2,4_oda,orta_4_7_kat,1_banyo,yok,yok,yok,yok,yok,yok,yok,4_5_Milyon_TL_Arasi
Erzurum,Yakutiye,Satilik,1_5_arasi,Ara_Kat,Merkezi,bilinmiyor,yok,yok,var,var,yok,var,var,yok,var,yok,yok,yok,yok,yok,yok,yok,yok,yok,yok,yok,yok,yok,yok,yok,yok,yok,yok,yok,yok,yok,kademe_5,iyi,iyi,bilinmiyor,150_200_m2,5_oda,yuksek_8_15_kat,2_banyo,yok,yok,yok,dusuk,yok,yok,yok,5_7_Bucuk_Milyon_TL_Arasi
Yozgat,Merkez,Satilik,16_20_arasi,6,Kombi,bilinmiyor,yok,var,yok,var,yok,var,var,var,var,yok,var,yok,yok,yok,yok,yok,yok,yok,yok,yok,yok,yok,yok,yok,yok,var,yok,yok,yok,yok,kademe_5,iyi,normal,bilinmiyor,100_125_m2,3_oda,orta_4_7_kat,1_banyo,yok,yok,yok,yok,orta,orta,yok,2_3_Milyon_TL_Arasi
Nigde,Merkez,Satilik,0,2,Kombi_Dogalgaz,bilinmiyor,yok,var,var,var,yok,yok,var,var,yok,yok,var,yok,yok,var,yok,yok,yok,yok,yok,yok,yok,yok,yok,yok,yok,var,yok,yok,yok,yok,kademe_5,iyi,iyi,bilinmiyor,50_75_m2,1_oda,orta_4_7_kat,1_banyo,dusuk,dusuk,yok,dusuk,orta,yuksek,dusuk,2_3_Milyon_TL_Arasi
Bartin,Merkez,Satilik,0,1,Kombi,bilinmiyor,yok,var,var,var,yok,yok,yok,yok,yok,yok,yok,yok,yok,yok,yok,yok,yok,yok,yok,yok,yok,yok,yok,yok,yok,yok,yok,yok,yok,yok,kademe_5,kotu,bilinmiyor,bilinmiyor,100_125_m2,3_oda,orta_4_7_kat,1_banyo,yok,yok,yok,dusuk,yok,yok,yok,5_7_Bucuk_Milyon_TL_Arasi
Hatay,Iskenderun,Satilik,0,2,Kombi,bilinmiyor,yok,yok,var,yok,yok,var,var,var,var,yok,yok,yok,yok,yok,yok,yok,yok,yok,yok,yok,yok,yok,yok,yok,yok,yok,yok,yok,yok,yok,kademe_5,bilinmiyor,bilinmiyor,bilinmiyor,0_50_m2,2_oda,orta_4_7_kat,1_banyo,yok,yok,yok,dusuk,yok,yok,yok,2_3_Milyon_TL_Arasi
Hatay,Dortyol,Satilik,6_10_arasi,Cati,Kombi,bilinmiyor,yok,var,var,var,yok,var,yok,var,var,yok,var,yok,yok,var,yok,yok,yok,yok,yok,yok,yok,yok,yok,yok,yok,var,var,yok,yok,yok,kademe_5,iyi,kotu,bilinmiyor,300_m2_ve_ustu,5_oda,alcak_1_3_kat,2_banyo,yok,dusuk,dusuk,dusuk,orta,yuksek,yok,4_5_Milyon_TL_Arasi
Hatay,Arsuz,Satilik,1_5_arasi,3,Klima,bilinmiyor,yok,yok,var,yok,yok,yok,var,var,yok,yok,yok,yok,yok,yok,yok,yok,yok,yok,yok,yok,yok,yok,yok,yok,yok,yok,yok,yok,var,yok,kademe_5,normal,bilinmiyor,kotu,200_300_m2,4_oda,orta_4_7_kat,2_banyo,yok,yok,yok,orta,yok,dusuk,yok,5_7_Bucuk_Milyon_TL_Arasi
Hatay,Arsuz,Satilik,26_30_arasi,bilinmiyor,Gunes_Enerjisi,bilinmiyor,yok,var,yok,var,var,yok,yok,var,var,yok,var,yok,yok,yok,yok,yok,yok,yok,yok,yok,yok,var,var,yok,yok,var,yok,yok,yok,var,kademe_5,bilinmiyor,bilinmiyor,bilinmiyor,150_200_m2,5_oda,orta_4_7_kat,2_banyo,yok,dusuk,yok,orta,dusuk,yuksek,yok,7_Bucuk_10_Milyon_TL_Arasi
Tokat,Merkez,Satilik,6_10_arasi,2,Kombi_Dogalgaz,bilinmiyor,yok,var,var,yok,yok,var,var,yok,var,yok,var,yok,yok,var,yok,yok,yok,yok,yok,yok,yok,yok,var,yok,yok,var,yok,yok,var,yok,kademe_5,normal,normal,bilinmiyor,200_300_m2,5_oda,alcak_1_3_kat,2_banyo,yok,dusuk,yok,dusuk,yok,orta,yok,4_5_Milyon_TL_Arasi
Kahramanmaras,Onikisubat,Satilik,1_5_arasi,1,Kombi,bilinmiyor,yok,var,yok,var,yok,var,yok,var,yok,yok,yok,yok,yok,yok,yok,yok,yok,yok,var,yok,yok,yok,yok,yok,yok,yok,yok,yok,yok,yok,kademe_5,normal,iyi,bilinmiyor,300_m2_ve_ustu,7_oda_ve_ustu,orta_4_7_kat,2_banyo,yok,dusuk,dusuk,dusuk,orta,yuksek,yok,7_Bucuk_10_Milyon_TL_Arasi
Hatay,Iskenderun,Satilik,0,2,Kombi,bilinmiyor,yok,var,var,var,yok,var,var,var,yok,yok,var,yok,yok,yok,yok,yok,yok,yok,yok,yok,yok,yok,yok,yok,yok,var,yok,yok,yok,yok,kademe_5,bilinmiyor,bilinmiyor,kotu,50_75_m2,2_oda,orta_4_7_kat,1_banyo,dusuk,dusuk,yok,orta,orta,yuksek,yok,2_3_Milyon_TL_Arasi
Hatay,Arsuz,Satilik,1_5_arasi,3,Klima,bilinmiyor,yok,var,yok,var,yok,var,var,var,var,yok,var,yok,yok,yok,yok,yok,yok,yok,var,yok,yok,yok,yok,yok,yok,yok,yok,yok,yok,yok,kademe_5,normal,kotu,kotu,100_125_m2,3_oda,orta_4_7_kat,1_banyo,dusuk,yok,yok,dusuk,orta,yuksek,yok,5_7_Bucuk_Milyon_TL_Arasi
Kahramanmaras,Dulkadiroglu,Satilik,0,2,Kombi,bilinmiyor,yok,var,yok,var,yok,var,var,var,yok,yok,var,yok,yok,yok,yok,yok,yok,yok,yok,yok,yok,yok,yok,yok,yok,var,yok,yok,yok,yok,kademe_5,normal,normal,kotu,125_150_m2,4_oda,orta_4_7_kat,2_banyo,dusuk,yok,yok,dusuk,yuksek,dusuk,yok,3_4_Milyon_TL_Arasi
Hatay,Altinozu,Satilik,1_5_arasi,bilinmiyor,Soba,bilinmiyor,yok,yok,yok,yok,yok,yok,yok,yok,yok,yok,yok,yok,yok,yok,yok,yok,yok,yok,yok,yok,yok,yok,yok,yok,yok,yok,yok,yok,yok,yok,kademe_5,bilinmiyor,bilinmiyor,bilinmiyor,125_150_m2,4_oda,bilinmiyor,1_banyo,yok,yok,yok,dusuk,yok,yok,yok,3_4_Milyon_TL_Arasi
Hatay,Antakya,Satilik,6_10_arasi,3,Kombi,bilinmiyor,yok,var,var,var,yok,yok,yok,var,yok,yok,var,yok,yok,yok,yok,yok,yok,yok,yok,yok,yok,yok,yok,yok,yok,yok,yok,yok,yok,yok,kademe_5,normal,normal,kotu,100_125_m2,3_oda,orta_4_7_kat,1_banyo,yok,yok,dusuk,orta,orta,orta,yok,2_3_Milyon_TL_Arasi
Kahramanmaras,Dulkadiroglu,Satilik,6_10_arasi,Yuksek_Giris,Kombi_Dogalgaz,bilinmiyor,yok,var,var,var,yok,var,var,yok,var,yok,var,var,yok,var,yok,yok,yok,yok,yok,yok,yok,yok,var,yok,yok,var,yok,yok,yok,yok,kademe_5,iyi,normal,kotu,300_m2_ve_ustu,6_oda,orta_4_7_kat,2_banyo,dusuk,dusuk,yok,dusuk,yok,yuksek,yok,5_7_Bucuk_Milyon_TL_Arasi
Hatay,Antakya,Satilik,1_5_arasi,1,Yerden_Isitma,bilinmiyor,yok,var,var,var,yok,yok,yok,yok,yok,yok,yok,yok,yok,yok,yok,yok,yok,yok,yok,yok,yok,yok,yok,yok,yok,yok,yok,yok,yok,yok,kademe_5,iyi,iyi,normal,125_150_m2,4_oda,orta_4_7_kat,1_banyo,yok,yok,dusuk,orta,orta,orta,yok,2_3_Milyon_TL_Arasi
bilinmiyor,Merkez,Satilik,16_20_arasi,2,Kombi_Dogalgaz,bilinmiyor,yok,yok,yok,yok,yok,var,var,yok,yok,yok,yok,yok,yok,yok,yok,yok,yok,yok,yok,yok,yok,yok,yok,yok,yok,yok,yok,yok,yok,yok,kademe_5,kotu,kotu,bilinmiyor,75_100_m2,3_oda,yuksek_8_15_kat,1_banyo,yok,yok,yok,dusuk,yok,yok,yok,2_3_Milyon_TL_Arasi
Tokat,bilinmiyor,Satilik,16_20_arasi,2,Kombi_Dogalgaz,bilinmiyor,yok,yok,yok,yok,yok,var,var,yok,yok,yok,yok,yok,yok,yok,yok,yok,yok,yok,yok,yok,yok,yok,yok,yok,yok,yok,yok,yok,yok,yok,kademe_5,kotu,kotu,bilinmiyor,75_100_m2,3_oda,yuksek_8_15_kat,1_banyo,yok,yok,yok,dusuk,yok,yok,yok,2_3_Milyon_TL_Arasi
Tokat,Merkez,bilinmiyor,16_20_arasi,2,Kombi_Dogalgaz,bilinmiyor,yok,yok,yok,yok,yok,var,var,yok,yok,yok,yok,yok,yok,yok,yok,yok,yok,yok,yok,yok,yok,yok,yok,yok,yok,yok,yok,yok,yok,yok,kademe_5,kotu,kotu,bilinmiyor,75_100_m2,3_oda,yuksek_8_15_kat,1_banyo,yok,yok,yok,dusuk,yok,yok,yok,2_3_Milyon_TL_Arasi
Tokat,Merkez,Satilik,bilinmiyor,2,Kombi_Dogalgaz,bilinmiyor,yok,yok,yok,yok,yok,var,var,yok,yok,yok,yok,yok,yok,yok,yok,yok,yok,yok,yok,yok,yok,yok,yok,yok,yok,yok,yok,yok,yok,yok,kademe_5,kotu,kotu,bilinmiyor,75_100_m2,3_oda,yuksek_8_15_kat,1_banyo,yok,yok,yok,dusuk,yok,yok,yok,2_3_Milyon_TL_Arasi
Tokat,Merkez,Satilik,16_20_arasi,2,Kombi_Dogalgaz,bilinmiyor,yok,yok,yok,yok,yok,var,var,yok,yok,yok,yok,yok,yok,yok,yok,yok,yok,yok,yok,yok,yok,yok,yok,yok,yok,yok,yok,yok,yok,yok,bilinmiyor,kotu,kotu,bilinmiyor,75_100_m2,3_oda,yuksek_8_15_kat,1_banyo,yok,yok,yok,dusuk,yok,yok,yok,2_3_Milyon_TL_Arasi
Tokat,Merkez,Satilik,16_20_arasi,2,Kombi_Dogalgaz,bilinmiyor,yok,yok,yok,yok,yok,var,var,yok,yok,yok,yok,yok,yok,yok,yok,yok,yok,yok,yok,yok,yok,yok,yok,yok,yok,yok,yok,yok,yok,yok,kademe_5,kotu,kotu,bilinmiyor,bilinmiyor,3_oda,yuksek_8_15_kat,1_banyo,yok,yok,yok,dusuk,yok,yok,yok,2_3_Milyon_TL_Arasi
Tokat,Merkez,Satilik,16_20_arasi,2,Kombi_Dogalgaz,bilinmiyor,yok,yok,yok,yok,yok,var,var,yok,yok,yok,yok,yok,yok,yok,yok,yok,yok,yok,yok,yok,yok,yok,yok,yok,yok,yok,yok,yok,yok,yok,kademe_5,kotu,kotu,bilinmiyor,75_100_m2,bilinmiyor,yuksek_8_15_kat,1_banyo,yok,yok,yok,dusuk,yok,yok,yok,2_3_Milyon_TL_Arasi
Tokat,Merkez,Satilik,16_20_arasi,2,Kombi_Dogalgaz,bilinmiyor,yok,yok,yok,yok,yok,var,var,yok,yok,yok,yok,yok,yok,yok,yok,yok,yok,yok,yok,yok,yok,yok,yok,yok,yok,yok,yok,yok,yok,yok,kademe_5,kotu,kotu,bilinmiyor,75_100_m2,3_oda,yuksek_8_15_kat,1_banyo,bilinmiyor,yok,yok,dusuk,yok,yok,yok,2_3_Milyon_TL_Arasi
Tokat,Merkez,Satilik,16_20_arasi,2,Kombi_Dogalgaz,bilinmiyor,yok,yok,yok,yok,yok,var,var,yok,yok,yok,yok,yok,yok,yok,yok,yok,yok,yok,yok,yok,yok,yok,yok,yok,yok,yok,yok,yok,yok,yok,kademe_5,kotu,kotu,bilinmiyor,75_100_m2,3_oda,yuksek_8_15_kat,1_banyo,yok,bilinmiyor,yok,dusuk,yok,yok,yok,2_3_Milyon_TL_Arasi
Tokat,Merkez,Satilik,16_20_arasi,2,Kombi_Dogalgaz,bilinmiyor,yok,yok,yok,yok,yok,var,var,yok,yok,yok,yok,yok,yok,yok,yok,yok,yok,yok,yok,yok,yok,yok,yok,yok,yok,yok,yok,yok,yok,yok,kademe_5,kotu,kotu,bilinmiyor,75_100_m2,3_oda,yuksek_8_15_kat,1_banyo,yok,yok,bilinmiyor,dusuk,yok,yok,yok,2_3_Milyon_TL_Arasi
Tokat,Merkez,Satilik,16_20_arasi,2,Kombi_Dogalgaz,bilinmiyor,yok,yok,yok,yok,yok,var,var,yok,yok,yok,yok,yok,yok,yok,yok,yok,yok,yok,yok,yok,yok,yok,yok,yok,yok,yok,yok,yok,yok,yok,kademe_5,kotu,kotu,bilinmiyor,75_100_m2,3_oda,yuksek_8_15_kat,1_banyo,yok,yok,yok,bilinmiyor,yok,yok,yok,2_3_Milyon_TL_Arasi
Tokat,Merkez,Satilik,16_20_arasi,2,Kombi_Dogalgaz,bilinmiyor,yok,yok,yok,yok,yok,var,var,yok,yok,yok,yok,yok,yok,yok,yok,yok,yok,yok,yok,yok,yok,yok,yok,yok,yok,yok,yok,yok,yok,yok,kademe_5,kotu,kotu,bilinmiyor,75_100_m2,3_oda,yuksek_8_15_kat,1_banyo,yok,yok,yok,dusuk,bilinmiyor,yok,yok,2_3_Milyon_TL_Arasi
Tokat,Merkez,Satilik,16_20_arasi,2,Kombi_Dogalgaz,bilinmiyor,yok,yok,yok,yok,yok,var,var,yok,yok,yok,yok,yok,yok,yok,yok,yok,yok,yok,yok,yok,yok,yok,yok,yok,yok,yok,yok,yok,yok,yok,kademe_5,kotu,kotu,bilinmiyor,75_100_m2,3_oda,yuksek_8_15_kat,1_banyo,yok,yok,yok,dusuk,yok,bilinmiyor,yok,2_3_Milyon_TL_Arasi
Tokat,Merkez,Satilik,16_20_arasi,2,Kombi_Dogalgaz,bilinmiyor,yok,yok,yok,yok,yok,var,var,yok,yok,yok,yok,yok,yok,yok,yok,yok,yok,yok,yok,yok,yok,yok,yok,yok,yok,yok,yok,yok,yok,yok,kademe_5,kotu,kotu,bilinmiyor,75_100_m2,3_oda,yuksek_8_15_kat,1_banyo,yok,yok,yok,dusuk,yok,yok,bilinmiyor,2_3_Milyon_TL_Arasi
