@RELATION train_kademe6

@ATTRIBUTE il {Adiyaman,Agri,Ardahan,Batman,Bingol,Bitlis,Diyarbakir,Gumushane,Igdir,Kars,Mardin,Mus,Siirt,Sirnak,Van,bilinmiyor}
@ATTRIBUTE ilce {Artuklu,Baglar,Besni,Derik,Dogubayazit,Edremit,Ercis,Ergani,Gevas,Golbasi,Hamur,Ipekyolu,Kahta,Kayapinar,Kelkit,Kiziltepe,Kurtun,Merkez,Midyat,Nusaybin,Sarikamis,Silvan,Siran,Sur,Tatvan,Torul,Tusba,Yenisehir,bilinmiyor}
@ATTRIBUTE emlak_tipi {Satilik,bilinmiyor}
@ATTRIBUTE bina_yasi_raw {0,11_15_arasi,16_20_arasi,1_5_arasi,21_25_arasi,26_30_arasi,31_ve_uzeri,6_10_arasi,bilinmiyor}
@ATTRIBUTE bulundugu_kat_raw {1,10,11,12,13,14,18,2,3,4,5,6,7,8,9,Ara_Kat,Bahce,Bodrum,En_Ust_Kat,Giris,Kot_1,Kot_2,Kot_3,Villa_Kati,Yuksek_Giris,Zemin,bilinmiyor}
@ATTRIBUTE isitma_ana_sinif {Dogalgaz_Sobasi,Gunes_Enerjisi,Kat_Kaloriferi,Klima,Kombi,Kombi_Dogalgaz,Merkezi,Soba,Yerden_Isitma,bilinmiyor,isitma_yok,isitma_yok_komur_odun}
@ATTRIBUTE mutfak_raw {Kiler,bilinmiyor,tasarimi.}
@ATTRIBUTE mutfak_acik_mi {yok,var}
@ATTRIBUTE balkon {yok,var}
@ATTRIBUTE asansor {yok,var}
@ATTRIBUTE otopark {yok,var}
@ATTRIBUTE esyali {yok,var}
@ATTRIBUTE Bati {yok,var}
@ATTRIBUTE Dogu {yok,var}
@ATTRIBUTE Guney {yok,var}
@ATTRIBUTE Kuzey {yok,var}
@ATTRIBUTE Akilli_Ev {yok,var}
@ATTRIBUTE Celik_Kapi {yok,var}
@ATTRIBUTE Ebeveyn_Banyosu {yok,var}
@ATTRIBUTE Fiber_Internet {yok,var}
@ATTRIBUTE Isicam {yok,var}
@ATTRIBUTE Somine {yok,var}
@ATTRIBUTE Isi_Yalitimi {yok,var}
@ATTRIBUTE Mustakil_Havuzlu {yok,var}
@ATTRIBUTE Ses_Yalitimi {yok,var}
@ATTRIBUTE Yuzme_Havuzu_Acik {yok,var}
@ATTRIBUTE Yuzme_Havuzu_Kapali {yok,var}
@ATTRIBUTE Bogaz {yok,var}
@ATTRIBUTE Deniz {yok,var}
@ATTRIBUTE Doga {yok,var}
@ATTRIBUTE Gol {yok,var}
@ATTRIBUTE Nehir {yok,var}
@ATTRIBUTE Sehir {yok,var}
@ATTRIBUTE Dubleks {yok,var}
@ATTRIBUTE Bahce_Dubleksi {yok,var}
@ATTRIBUTE Cati_Dubleksi {yok,var}
@ATTRIBUTE Tripleks {yok,var}
@ATTRIBUTE sege_kademe {bilinmiyor,kademe_6}
@ATTRIBUTE salon_kalitesi {bilinmiyor,iyi,kotu,normal}
@ATTRIBUTE mutfak_kalitesi {bilinmiyor,iyi,kotu,normal}
@ATTRIBUTE banyo_kalitesi {bilinmiyor,iyi,kotu,normal}
@ATTRIBUTE metrekare_kategori {0_50_m2,100_125_m2,125_150_m2,150_200_m2,200_300_m2,300_m2_ve_ustu,50_75_m2,75_100_m2,bilinmiyor}
@ATTRIBUTE oda_kategori {1_oda,2_oda,3_oda,4_oda,5_oda,6_oda,7_oda_ve_ustu,bilinmiyor}
@ATTRIBUTE kat_sayisi_kategori {alcak_1_3_kat,bilinmiyor,cok_yuksek_16_ustu_kat,orta_4_7_kat,yuksek_8_15_kat}
@ATTRIBUTE banyo_kategori {1_banyo,2_banyo,3_banyo_ve_ustu,bilinmiyor}
@ATTRIBUTE guvenlik_kategori {bilinmiyor,dusuk,orta,yok}
@ATTRIBUTE luks_kategori {bilinmiyor,dusuk,orta,yok}
@ATTRIBUTE sosyal_kategori {bilinmiyor,dusuk,orta,yok}
@ATTRIBUTE ulasim_kategori {bilinmiyor,dusuk,orta,yok}
@ATTRIBUTE cevre_yakinlik_kategori {bilinmiyor,dusuk,orta,yok,yuksek}
@ATTRIBUTE ic_konfor_kategori {bilinmiyor,dusuk,orta,yok,yuksek}
@ATTRIBUTE engelli_kategori {bilinmiyor,dusuk,orta,yok,yuksek}
@ATTRIBUTE fiyat_kategorisi {10_Milyon_TL_Ustu,1_5_2_Milyon_TL_Arasi,1_5_Milyon_TL_Alti,2_3_Milyon_TL_Arasi,3_4_Milyon_TL_Arasi,4_5_Milyon_TL_Arasi,5_7_Bucuk_Milyon_TL_Arasi,7_Bucuk_10_Milyon_TL_Arasi}

@DATA
Mardin,Midyat,Satilik,6_10_arasi,1,Kombi_Dogalgaz,bilinmiyor,yok,var,yok,yok,yok,yok,yok,var,yok,yok,yok,yok,yok,yok,yok,yok,yok,yok,yok,yok,yok,yok,yok,yok,yok,yok,yok,yok,yok,yok,kademe_6,bilinmiyor,kotu,bilinmiyor,75_100_m2,3_oda,orta_4_7_kat,1_banyo,yok,yok,yok,dusuk,yok,yok,yok,3_4_Milyon_TL_Arasi
Mardin,Artuklu,Satilik,1_5_arasi,Kot_1,Kombi_Dogalgaz,bilinmiyor,yok,yok,yok,var,yok,yok,var,yok,var,yok,yok,yok,yok,yok,yok,yok,yok,yok,yok,yok,yok,yok,yok,yok,yok,yok,yok,yok,yok,yok,kademe_6,normal,bilinmiyor,bilinmiyor,75_100_m2,2_oda,orta_4_7_kat,1_banyo,yok,yok,yok,dusuk,yok,yok,yok,1_5_Milyon_TL_Alti
Mardin,Artuklu,Satilik,31_ve_uzeri,1,Klima,bilinmiyor,yok,var,yok,yok,yok,yok,yok,yok,yok,yok,yok,yok,yok,yok,yok,yok,yok,yok,yok,yok,yok,yok,yok,yok,yok,yok,yok,yok,yok,yok,kademe_6,kotu,bilinmiyor,bilinmiyor,300_m2_ve_ustu,7_oda_ve_ustu,orta_4_7_kat,3_banyo_ve_ustu,yok,yok,yok,dusuk,yok,dusuk,yok,10_Milyon_TL_Ustu
Mardin,Kiziltepe,Satilik,1_5_arasi,1,bilinmiyor,bilinmiyor,yok,var,var,yok,yok,yok,yok,yok,yok,yok,yok,yok,yok,yok,yok,yok,yok,yok,yok,yok,yok,yok,yok,yok,yok,yok,yok,yok,yok,yok,kademe_6,bilinmiyor,normal,bilinmiyor,200_300_m2,6_oda,alcak_1_3_kat,1_banyo,yok,yok,yok,dusuk,yok,yok,yok,4_5_Milyon_TL_Arasi
Adiyaman,Merkez,Satilik,16_20_arasi,1,Kombi,bilinmiyor,yok,var,yok,yok,yok,yok,yok,yok,yok,yok,yok,yok,yok,yok,yok,yok,yok,yok,yok,yok,yok,yok,yok,yok,yok,yok,yok,yok,yok,yok,kademe_6,normal,normal,kotu,100_125_m2,3_oda,alcak_1_3_kat,1_banyo,yok,yok,yok,dusuk,yok,yok,yok,2_3_Milyon_TL_Arasi
Diyarbakir,Baglar,Satilik,6_10_arasi,3,Kombi,bilinmiyor,yok,var,yok,var,yok,yok,yok,var,yok,yok,yok,yok,yok,yok,yok,yok,yok,yok,yok,yok,yok,yok,yok,yok,yok,var,yok,yok,yok,yok,kademe_6,normal,normal,iyi,100_125_m2,3_oda,yuksek_8_15_kat,1_banyo,yok,yok,yok,dusuk,yuksek,orta,yok,3_4_Milyon_TL_Arasi
Van,Ipekyolu,Satilik,6_10_arasi,3,Kombi,bilinmiyor,yok,var,var,var,var,yok,yok,yok,var,yok,yok,yok,yok,yok,yok,yok,yok,yok,yok,yok,yok,yok,yok,yok,yok,yok,yok,yok,yok,yok,kademe_6,kotu,normal,kotu,50_75_m2,2_oda,orta_4_7_kat,1_banyo,yok,yok,yok,dusuk,yok,yok,yok,1_5_2_Milyon_TL_Arasi
Van,Tusba,Satilik,6_10_arasi,Bahce,Kombi,bilinmiyor,yok,var,yok,yok,yok,var,yok,var,yok,yok,var,yok,yok,yok,yok,yok,yok,yok,yok,yok,yok,yok,yok,yok,yok,var,var,yok,yok,yok,kademe_6,normal,normal,bilinmiyor,200_300_m2,6_oda,bilinmiyor,2_banyo,yok,yok,yok,orta,yuksek,orta,yok,10_Milyon_TL_Ustu
Adiyaman,Merkez,Satilik,6_10_arasi,En_Ust_Kat,Kombi_Dogalgaz,bilinmiyor,yok,var,var,var,yok,yok,yok,var,var,yok,var,yok,yok,var,yok,yok,yok,yok,yok,yok,yok,yok,yok,yok,yok,var,yok,yok,yok,yok,kademe_6,iyi,iyi,iyi,125_150_m2,4_oda,orta_4_7_kat,1_banyo,yok,yok,yok,dusuk,orta,yuksek,yok,3_4_Milyon_TL_Arasi
Diyarbakir,Yenisehir,Satilik,0,5,Merkezi,bilinmiyor,yok,var,var,var,yok,yok,yok,yok,yok,yok,yok,yok,yok,yok,yok,yok,yok,yok,yok,yok,yok,yok,yok,yok,yok,yok,yok,yok,yok,yok,kademe_6,bilinmiyor,bilinmiyor,bilinmiyor,100_125_m2,4_oda,yuksek_8_15_kat,1_banyo,yok,yok,yok,dusuk,yok,yok,yok,3_4_Milyon_TL_Arasi
Van,Ercis,Satilik,0,4,Kombi_Dogalgaz,bilinmiyor,yok,yok,var,yok,yok,yok,var,yok,var,yok,yok,yok,yok,yok,yok,yok,yok,yok,yok,yok,yok,yok,yok,yok,yok,yok,yok,yok,yok,yok,kademe_6,normal,iyi,normal,50_75_m2,2_oda,orta_4_7_kat,1_banyo,yok,yok,yok,dusuk,yok,yok,yok,1_5_2_Milyon_TL_Arasi
Adiyaman,Merkez,Satilik,0,Bahce,Kat_Kaloriferi,bilinmiyor,yok,yok,yok,var,yok,var,var,var,var,yok,yok,yok,yok,yok,yok,yok,yok,yok,yok,yok,yok,yok,yok,yok,yok,yok,yok,yok,yok,yok,kademe_6,bilinmiyor,bilinmiyor,bilinmiyor,200_300_m2,5_oda,alcak_1_3_kat,2_banyo,yok,yok,yok,dusuk,yok,yok,yok,5_7_Bucuk_Milyon_TL_Arasi
Van,Ipekyolu,Satilik,16_20_arasi,2,Kombi_Dogalgaz,bilinmiyor,yok,yok,yok,yok,yok,yok,yok,yok,yok,yok,yok,yok,yok,yok,yok,yok,yok,yok,yok,yok,yok,yok,yok,yok,yok,yok,yok,yok,yok,yok,kademe_6,normal,normal,bilinmiyor,200_300_m2,5_oda,orta_4_7_kat,1_banyo,yok,yok,yok,dusuk,yok,yok,yok,4_5_Milyon_TL_Arasi
Van,Tusba,Satilik,0,Bahce,Kat_Kaloriferi,tasarimi.,yok,var,yok,var,yok,var,var,var,var,yok,yok,yok,yok,yok,yok,yok,yok,yok,yok,yok,yok,yok,yok,yok,yok,yok,yok,yok,yok,yok,kademe_6,bilinmiyor,bilinmiyor,kotu,150_200_m2,4_oda,alcak_1_3_kat,1_banyo,yok,yok,yok,dusuk,yok,yok,yok,5_7_Bucuk_Milyon_TL_Arasi
Mardin,Nusaybin,Satilik,0,2,Yerden_Isitma,bilinmiyor,yok,var,yok,yok,yok,var,yok,yok,var,yok,yok,var,yok,yok,yok,yok,yok,yok,yok,yok,yok,yok,yok,yok,yok,var,yok,yok,yok,yok,kademe_6,kotu,normal,iyi,150_200_m2,5_oda,orta_4_7_kat,2_banyo,dusuk,dusuk,dusuk,orta,yuksek,orta,yok,5_7_Bucuk_Milyon_TL_Arasi
Van,Ipekyolu,Satilik,6_10_arasi,3,Kombi_Dogalgaz,bilinmiyor,yok,var,yok,var,var,yok,var,yok,yok,yok,yok,yok,yok,yok,yok,yok,yok,yok,yok,yok,yok,yok,yok,yok,yok,yok,yok,yok,yok,yok,kademe_6,kotu,bilinmiyor,normal,50_75_m2,2_oda,orta_4_7_kat,1_banyo,yok,yok,yok,dusuk,yok,yok,yok,1_5_2_Milyon_TL_Arasi
Mardin,Kiziltepe,Satilik,1_5_arasi,11,Kombi,bilinmiyor,yok,yok,yok,yok,yok,yok,yok,yok,yok,yok,yok,yok,yok,yok,yok,yok,yok,yok,yok,yok,yok,yok,yok,yok,yok,yok,yok,yok,yok,yok,kademe_6,bilinmiyor,bilinmiyor,bilinmiyor,150_200_m2,5_oda,yuksek_8_15_kat,1_banyo,yok,yok,yok,dusuk,yok,yok,yok,4_5_Milyon_TL_Arasi
Van,Ipekyolu,Satilik,1_5_arasi,3,Kombi_Dogalgaz,bilinmiyor,yok,var,var,var,yok,var,yok,yok,var,yok,var,yok,yok,var,yok,yok,yok,var,yok,yok,yok,yok,yok,yok,yok,yok,yok,yok,yok,yok,kademe_6,iyi,normal,bilinmiyor,75_100_m2,2_oda,orta_4_7_kat,1_banyo,orta,yok,yok,dusuk,yuksek,yuksek,yok,3_4_Milyon_TL_Arasi
Van,Ipekyolu,Satilik,0,7,Yerden_Isitma,bilinmiyor,yok,var,yok,yok,yok,var,var,var,yok,yok,yok,yok,yok,yok,yok,yok,yok,yok,yok,yok,yok,yok,yok,yok,yok,yok,yok,yok,yok,yok,kademe_6,bilinmiyor,normal,bilinmiyor,150_200_m2,4_oda,yuksek_8_15_kat,2_banyo,yok,yok,yok,dusuk,yok,yok,yok,5_7_Bucuk_Milyon_TL_Arasi
Bingol,Merkez,Satilik,11_15_arasi,3,Kombi,bilinmiyor,yok,var,var,var,yok,yok,yok,yok,yok,yok,yok,yok,yok,yok,yok,yok,yok,yok,yok,yok,yok,yok,yok,yok,yok,yok,yok,yok,yok,yok,kademe_6,normal,normal,bilinmiyor,125_150_m2,4_oda,orta_4_7_kat,1_banyo,yok,yok,yok,dusuk,yok,yok,yok,3_4_Milyon_TL_Arasi
Van,Ipekyolu,Satilik,6_10_arasi,5,Kombi_Dogalgaz,bilinmiyor,yok,var,var,var,var,yok,yok,yok,var,yok,var,yok,yok,yok,yok,yok,yok,yok,yok,yok,yok,yok,yok,yok,yok,var,yok,yok,yok,yok,kademe_6,normal,normal,normal,50_75_m2,2_oda,orta_4_7_kat,1_banyo,orta,yok,yok,orta,orta,yuksek,yok,1_5_Milyon_TL_Alti
Bitlis,Tatvan,Satilik,0,Yuksek_Giris,Kombi,bilinmiyor,yok,var,yok,yok,yok,yok,yok,yok,yok,yok,yok,yok,yok,yok,yok,yok,yok,yok,yok,yok,yok,yok,yok,yok,yok,yok,yok,yok,yok,yok,kademe_6,kotu,normal,kotu,75_100_m2,2_oda,yuksek_8_15_kat,1_banyo,yok,yok,yok,yok,yok,yok,yok,1_5_2_Milyon_TL_Arasi
Gumushane,Merkez,Satilik,11_15_arasi,2,Kombi,bilinmiyor,yok,var,var,var,yok,yok,yok,yok,yok,yok,yok,yok,yok,yok,yok,yok,yok,yok,yok,yok,yok,yok,yok,yok,yok,yok,yok,yok,yok,yok,kademe_6,kotu,kotu,kotu,75_100_m2,3_oda,orta_4_7_kat,1_banyo,yok,yok,yok,dusuk,yok,yok,yok,2_3_Milyon_TL_Arasi
Van,Ercis,Satilik,1_5_arasi,1,Kombi,bilinmiyor,yok,var,var,var,yok,yok,var,yok,yok,yok,var,yok,yok,yok,yok,yok,yok,yok,yok,yok,yok,yok,var,yok,yok,var,yok,yok,yok,yok,kademe_6,iyi,iyi,bilinmiyor,75_100_m2,3_oda,orta_4_7_kat,1_banyo,dusuk,dusuk,dusuk,dusuk,yuksek,yuksek,yok,2_3_Milyon_TL_Arasi
Van,Ipekyolu,Satilik,1_5_arasi,1,Kombi,bilinmiyor,yok,var,yok,var,yok,yok,yok,var,var,yok,yok,yok,yok,yok,yok,yok,yok,yok,yok,yok,yok,yok,yok,yok,yok,yok,yok,yok,yok,yok,kademe_6,normal,normal,bilinmiyor,125_150_m2,4_oda,orta_4_7_kat,1_banyo,yok,yok,yok,dusuk,yok,yok,yok,3_4_Milyon_TL_Arasi
Batman,Merkez,Satilik,1_5_arasi,6,Kombi,bilinmiyor,yok,var,yok,var,yok,yok,yok,yok,yok,yok,yok,yok,yok,yok,yok,yok,yok,yok,yok,yok,yok,yok,yok,yok,yok,yok,yok,yok,yok,yok,kademe_6,normal,iyi,normal,150_200_m2,4_oda,yuksek_8_15_kat,1_banyo,yok,yok,yok,dusuk,yok,yok,yok,2_3_Milyon_TL_Arasi
Van,Ipekyolu,Satilik,0,2,Yerden_Isitma,bilinmiyor,yok,var,var,yok,yok,yok,var,var,yok,yok,var,yok,yok,var,yok,yok,yok,yok,yok,yok,yok,yok,yok,yok,yok,var,yok,yok,yok,yok,kademe_6,iyi,iyi,iyi,100_125_m2,3_oda,orta_4_7_kat,1_banyo,dusuk,yok,dusuk,orta,yuksek,orta,yok,4_5_Milyon_TL_Arasi
Diyarbakir,Baglar,Satilik,11_15_arasi,1,Kombi_Dogalgaz,bilinmiyor,yok,var,var,var,yok,yok,var,var,yok,yok,var,yok,yok,yok,yok,yok,yok,yok,yok,yok,yok,yok,var,yok,yok,yok,yok,yok,yok,yok,kademe_6,iyi,normal,iyi,200_300_m2,4_oda,yuksek_8_15_kat,2_banyo,orta,yok,yok,dusuk,orta,orta,yok,5_7_Bucuk_Milyon_TL_Arasi
Diyarbakir,Baglar,Satilik,16_20_arasi,4,Kombi_Dogalgaz,bilinmiyor,yok,var,var,var,yok,var,var,var,yok,yok,var,yok,yok,yok,yok,yok,yok,var,yok,yok,yok,yok,yok,yok,yok,yok,yok,yok,yok,yok,kademe_6,normal,bilinmiyor,kotu,125_150_m2,7_oda_ve_ustu,orta_4_7_kat,1_banyo,yok,yok,dusuk,dusuk,yok,yuksek,yok,1_5_Milyon_TL_Alti
Batman,Merkez,Satilik,1_5_arasi,Bahce,Kombi_Dogalgaz,bilinmiyor,yok,yok,yok,yok,yok,yok,yok,yok,yok,yok,yok,yok,yok,yok,yok,yok,yok,yok,yok,yok,yok,yok,yok,yok,yok,yok,yok,yok,yok,yok,kademe_6,iyi,iyi,normal,75_100_m2,2_oda,orta_4_7_kat,1_banyo,yok,yok,yok,dusuk,yok,yok,yok,1_5_2_Milyon_TL_Arasi
Diyarbakir,Yenisehir,Satilik,16_20_arasi,En_Ust_Kat,Kombi_Dogalgaz,bilinmiyor,yok,var,var,var,yok,yok,yok,yok,yok,yok,var,yok,yok,yok,yok,yok,yok,yok,yok,yok,yok,yok,yok,yok,yok,var,yok,yok,yok,yok,kademe_6,iyi,iyi,iyi,150_200_m2,4_oda,orta_4_7_kat,1_banyo,dusuk,yok,yok,orta,orta,yuksek,yok,3_4_Milyon_TL_Arasi
Van,Tusba,Satilik,1_5_arasi,Villa_Kati,Klima,bilinmiyor,yok,var,yok,yok,yok,yok,var,var,yok,yok,var,yok,yok,var,yok,yok,yok,yok,yok,yok,yok,yok,yok,yok,yok,yok,var,yok,yok,yok,kademe_6,bilinmiyor,bilinmiyor,bilinmiyor,150_200_m2,4_oda,alcak_1_3_kat,1_banyo,yok,yok,yok,dusuk,yok,yuksek,yok,5_7_Bucuk_Milyon_TL_Arasi
Mardin,Artuklu,Satilik,0,4,Kombi,bilinmiyor,yok,var,yok,var,yok,yok,var,yok,yok,yok,var,var,yok,yok,yok,yok,yok,yok,yok,yok,yok,yok,var,yok,yok,var,yok,yok,yok,yok,kademe_6,normal,normal,bilinmiyor,150_200_m2,4_oda,yuksek_8_15_kat,2_banyo,dusuk,yok,yok,dusuk,dusuk,yuksek,yok,4_5_Milyon_TL_Arasi
Ardahan,Merkez,Satilik,1_5_arasi,1,bilinmiyor,bilinmiyor,yok,var,yok,yok,yok,yok,yok,yok,yok,yok,yok,yok,yok,yok,yok,yok,yok,yok,yok,yok,yok,yok,yok,yok,yok,yok,yok,yok,yok,yok,kademe_6,bilinmiyor,bilinmiyor,bilinmiyor,150_200_m2,5_oda,alcak_1_3_kat,2_banyo,yok,yok,yok,yok,yok,yok,yok,5_7_Bucuk_Milyon_TL_Arasi
Diyarbakir,Kayapinar,Satilik,6_10_arasi,1,bilinmiyor,bilinmiyor,yok,var,var,var,yok,yok,yok,yok,yok,yok,yok,yok,yok,yok,yok,yok,yok,yok,yok,yok,yok,yok,yok,yok,yok,yok,yok,yok,yok,yok,kademe_6,bilinmiyor,bilinmiyor,bilinmiyor,150_200_m2,5_oda,alcak_1_3_kat,1_banyo,yok,yok,yok,dusuk,yok,yok,yok,5_7_Bucuk_Milyon_TL_Arasi
Van,Ipekyolu,Satilik,1_5_arasi,3,Kombi,bilinmiyor,yok,var,var,var,yok,var,yok,var,yok,yok,var,yok,yok,yok,yok,yok,yok,yok,yok,yok,yok,yok,var,yok,yok,var,yok,yok,yok,yok,kademe_6,iyi,normal,bilinmiyor,150_200_m2,4_oda,orta_4_7_kat,1_banyo,yok,yok,yok,dusuk,orta,dusuk,yok,4_5_Milyon_TL_Arasi
Diyarbakir,Kayapinar,Satilik,6_10_arasi,Yuksek_Giris,Merkezi,bilinmiyor,yok,yok,yok,var,yok,yok,yok,yok,yok,yok,yok,yok,yok,yok,yok,yok,yok,yok,yok,yok,yok,yok,yok,yok,yok,yok,yok,yok,yok,yok,kademe_6,iyi,iyi,iyi,150_200_m2,4_oda,yuksek_8_15_kat,1_banyo,yok,yok,yok,dusuk,yok,yok,yok,4_5_Milyon_TL_Arasi
Diyarbakir,Yenisehir,Satilik,31_ve_uzeri,1,Kombi_Dogalgaz,bilinmiyor,yok,yok,yok,var,yok,yok,yok,yok,yok,yok,yok,yok,yok,yok,yok,yok,yok,yok,yok,yok,yok,yok,yok,yok,yok,yok,yok,yok,yok,yok,kademe_6,normal,bilinmiyor,bilinmiyor,125_150_m2,4_oda,yuksek_8_15_kat,1_banyo,yok,yok,yok,dusuk,yok,yok,yok,2_3_Milyon_TL_Arasi
Mardin,Artuklu,Satilik,16_20_arasi,bilinmiyor,Soba,bilinmiyor,yok,yok,yok,yok,yok,yok,yok,var,var,yok,yok,yok,yok,yok,yok,yok,yok,yok,yok,yok,yok,yok,yok,yok,yok,yok,yok,yok,yok,yok,kademe_6,bilinmiyor,bilinmiyor,bilinmiyor,300_m2_ve_ustu,7_oda_ve_ustu,alcak_1_3_kat,3_banyo_ve_ustu,yok,yok,yok,dusuk,yok,yok,yok,7_Bucuk_10_Milyon_TL_Arasi
Van,Tusba,Satilik,6_10_arasi,En_Ust_Kat,Kombi_Dogalgaz,bilinmiyor,yok,yok,yok,yok,yok,yok,yok,var,yok,yok,yok,yok,yok,yok,yok,yok,yok,yok,yok,yok,yok,yok,yok,yok,yok,yok,yok,yok,yok,yok,kademe_6,normal,normal,kotu,100_125_m2,4_oda,orta_4_7_kat,1_banyo,yok,yok,yok,dusuk,dusuk,yok,yok,2_3_Milyon_TL_Arasi
Van,Ipekyolu,Satilik,1_5_arasi,1,Kombi,bilinmiyor,yok,var,var,var,yok,yok,var,yok,yok,yok,yok,yok,yok,yok,yok,yok,yok,yok,yok,yok,yok,yok,yok,yok,yok,var,yok,yok,yok,yok,kademe_6,normal,iyi,bilinmiyor,100_125_m2,3_oda,orta_4_7_kat,1_banyo,yok,yok,yok,dusuk,dusuk,yok,yok,3_4_Milyon_TL_Arasi
Diyarbakir,Kayapinar,Satilik,6_10_arasi,1,bilinmiyor,bilinmiyor,yok,var,var,var,yok,yok,yok,yok,yok,yok,yok,yok,yok,yok,yok,yok,yok,yok,yok,yok,yok,yok,yok,yok,yok,yok,yok,yok,yok,yok,kademe_6,bilinmiyor,bilinmiyor,bilinmiyor,150_200_m2,5_oda,alcak_1_3_kat,1_banyo,yok,yok,yok,dusuk,yok,yok,yok,5_7_Bucuk_Milyon_TL_Arasi
Mardin,Kiziltepe,Satilik,11_15_arasi,1,bilinmiyor,bilinmiyor,yok,var,var,yok,yok,yok,yok,yok,yok,yok,yok,yok,yok,yok,yok,yok,yok,yok,yok,yok,yok,yok,yok,yok,yok,yok,yok,yok,yok,yok,kademe_6,bilinmiyor,bilinmiyor,bilinmiyor,100_125_m2,4_oda,alcak_1_3_kat,1_banyo,yok,yok,yok,dusuk,yok,yok,yok,1_5_2_Milyon_TL_Arasi
Diyarbakir,Yenisehir,Satilik,11_15_arasi,2,Kombi,bilinmiyor,yok,yok,yok,var,yok,yok,yok,yok,yok,yok,yok,yok,yok,yok,yok,yok,yok,yok,yok,yok,yok,yok,yok,yok,yok,yok,yok,yok,yok,yok,kademe_6,bilinmiyor,bilinmiyor,bilinmiyor,75_100_m2,4_oda,yuksek_8_15_kat,1_banyo,yok,yok,yok,dusuk,yok,yok,yok,2_3_Milyon_TL_Arasi
Mardin,Artuklu,Satilik,0,7,Kombi,bilinmiyor,yok,var,var,var,yok,yok,yok,yok,yok,yok,yok,yok,yok,yok,yok,yok,yok,yok,yok,yok,yok,yok,yok,yok,yok,yok,var,yok,yok,yok,kademe_6,normal,normal,bilinmiyor,300_m2_ve_ustu,6_oda,yuksek_8_15_kat,3_banyo_ve_ustu,yok,yok,yok,yok,yok,yok,yok,3_4_Milyon_TL_Arasi
Adiyaman,Merkez,Satilik,0,5,Kombi_Dogalgaz,bilinmiyor,yok,var,var,var,yok,var,var,var,yok,yok,yok,yok,yok,yok,yok,yok,yok,yok,yok,yok,yok,yok,yok,yok,yok,yok,yok,yok,yok,yok,kademe_6,bilinmiyor,bilinmiyor,kotu,150_200_m2,4_oda,orta_4_7_kat,2_banyo,yok,yok,yok,dusuk,yok,dusuk,yok,5_7_Bucuk_Milyon_TL_Arasi
Van,Ipekyolu,Satilik,6_10_arasi,4,Kombi,bilinmiyor,yok,var,var,yok,var,yok,yok,var,yok,yok,yok,yok,yok,yok,yok,yok,yok,yok,yok,yok,yok,yok,yok,yok,yok,yok,yok,yok,yok,yok,kademe_6,normal,bilinmiyor,bilinmiyor,50_75_m2,2_oda,orta_4_7_kat,1_banyo,yok,yok,yok,dusuk,yok,dusuk,yok,1_5_2_Milyon_TL_Arasi
Mardin,Midyat,Satilik,1_5_arasi,En_Ust_Kat,Kombi_Dogalgaz,bilinmiyor,yok,var,var,var,yok,yok,var,yok,var,yok,var,yok,yok,var,yok,yok,yok,var,yok,yok,yok,yok,var,yok,yok,var,yok,yok,yok,yok,kademe_6,iyi,normal,bilinmiyor,125_150_m2,3_oda,orta_4_7_kat,1_banyo,dusuk,yok,yok,orta,yuksek,yuksek,yok,3_4_Milyon_TL_Arasi
Mardin,Artuklu,Satilik,6_10_arasi,5,Kombi,bilinmiyor,yok,var,yok,var,yok,yok,var,yok,yok,yok,yok,yok,yok,yok,yok,yok,yok,yok,yok,yok,yok,yok,yok,var,yok,var,yok,yok,yok,yok,kademe_6,normal,bilinmiyor,bilinmiyor,150_200_m2,4_oda,orta_4_7_kat,1_banyo,dusuk,dusuk,dusuk,dusuk,yok,yok,yok,4_5_Milyon_TL_Arasi
Mardin,Artuklu,Satilik,0,8,Kombi,bilinmiyor,yok,var,var,yok,yok,yok,var,yok,yok,yok,yok,yok,yok,var,yok,yok,yok,yok,yok,yok,yok,yok,var,yok,yok,var,yok,yok,yok,yok,kademe_6,kotu,bilinmiyor,iyi,75_100_m2,3_oda,cok_yuksek_16_ustu_kat,1_banyo,dusuk,yok,yok,dusuk,orta,orta,yok,2_3_Milyon_TL_Arasi
Diyarbakir,Yenisehir,Satilik,1_5_arasi,13,Yerden_Isitma,bilinmiyor,yok,var,var,yok,yok,yok,yok,var,yok,yok,yok,yok,yok,yok,yok,yok,yok,yok,yok,yok,yok,yok,yok,yok,yok,yok,yok,yok,yok,yok,kademe_6,bilinmiyor,bilinmiyor,bilinmiyor,150_200_m2,4_oda,yuksek_8_15_kat,2_banyo,yok,yok,yok,dusuk,yok,yok,yok,5_7_Bucuk_Milyon_TL_Arasi
Mardin,Artuklu,Satilik,1_5_arasi,4,Kombi,bilinmiyor,yok,var,var,yok,yok,var,yok,yok,yok,yok,var,var,yok,var,yok,yok,yok,yok,yok,yok,yok,yok,yok,yok,yok,var,yok,yok,yok,yok,kademe_6,bilinmiyor,normal,bilinmiyor,200_300_m2,5_oda,yuksek_8_15_kat,2_banyo,dusuk,dusuk,dusuk,dusuk,orta,yuksek,yok,4_5_Milyon_TL_Arasi
Adiyaman,Merkez,Satilik,0,Yuksek_Giris,Kombi_Dogalgaz,bilinmiyor,yok,yok,yok,var,yok,yok,yok,yok,yok,yok,yok,yok,yok,yok,yok,yok,yok,yok,yok,yok,yok,yok,yok,yok,yok,yok,yok,yok,yok,yok,kademe_6,iyi,normal,kotu,100_125_m2,3_oda,orta_4_7_kat,1_banyo,yok,yok,yok,dusuk,dusuk,yok,yok,3_4_Milyon_TL_Arasi
Van,Ipekyolu,Satilik,1_5_arasi,5,Kombi_Dogalgaz,bilinmiyor,yok,var,var,var,var,yok,yok,var,yok,yok,var,yok,yok,var,yok,yok,yok,var,yok,yok,yok,yok,yok,yok,yok,var,yok,yok,yok,yok,kademe_6,kotu,normal,iyi,50_75_m2,2_oda,orta_4_7_kat,1_banyo,orta,yok,yok,dusuk,orta,yuksek,dusuk,1_5_2_Milyon_TL_Arasi
Batman,Merkez,Satilik,0,2,Yerden_Isitma,bilinmiyor,yok,var,yok,var,yok,var,yok,var,yok,yok,var,var,yok,var,yok,yok,yok,yok,var,yok,yok,yok,var,yok,yok,var,yok,yok,yok,yok,kademe_6,iyi,bilinmiyor,iyi,150_200_m2,4_oda,orta_4_7_kat,2_banyo,dusuk,dusuk,dusuk,dusuk,yuksek,yuksek,yok,7_Bucuk_10_Milyon_TL_Arasi
Van,Edremit,Satilik,0,Bahce,Yerden_Isitma,bilinmiyor,yok,var,yok,var,yok,var,var,var,var,yok,var,yok,yok,yok,yok,yok,yok,yok,yok,yok,yok,yok,var,var,yok,var,yok,yok,yok,var,kademe_6,bilinmiyor,bilinmiyor,bilinmiyor,300_m2_ve_ustu,6_oda,orta_4_7_kat,3_banyo_ve_ustu,dusuk,dusuk,yok,orta,orta,yuksek,yok,10_Milyon_TL_Ustu
Mardin,Artuklu,Satilik,6_10_arasi,5,Kombi,bilinmiyor,yok,var,yok,var,yok,yok,var,yok,var,yok,var,var,yok,yok,yok,yok,yok,yok,yok,yok,yok,yok,var,yok,yok,var,yok,yok,yok,yok,kademe_6,iyi,bilinmiyor,kotu,200_300_m2,5_oda,yuksek_8_15_kat,2_banyo,dusuk,yok,dusuk,dusuk,orta,yuksek,yok,4_5_Milyon_TL_Arasi
Gumushane,Merkez,Satilik,11_15_arasi,Ara_Kat,Kombi_Dogalgaz,bilinmiyor,yok,yok,var,yok,yok,yok,yok,var,yok,yok,yok,yok,yok,yok,yok,yok,yok,yok,yok,yok,yok,yok,yok,yok,yok,yok,yok,yok,yok,yok,kademe_6,normal,normal,bilinmiyor,100_125_m2,3_oda,yuksek_8_15_kat,1_banyo,yok,yok,yok,dusuk,yok,dusuk,yok,4_5_Milyon_TL_Arasi
Mardin,Kiziltepe,Satilik,1_5_arasi,1,bilinmiyor,bilinmiyor,yok,var,var,yok,yok,yok,yok,yok,yok,yok,yok,yok,yok,yok,yok,yok,yok,yok,yok,yok,yok,yok,yok,yok,yok,yok,yok,yok,yok,yok,kademe_6,bilinmiyor,bilinmiyor,bilinmiyor,200_300_m2,5_oda,alcak_1_3_kat,2_banyo,yok,yok,yok,dusuk,yok,yok,yok,3_4_Milyon_TL_Arasi
Van,Ipekyolu,Satilik,0,5,Kombi,bilinmiyor,yok,var,var,var,yok,var,yok,yok,var,yok,yok,yok,yok,yok,yok,yok,yok,yok,yok,yok,yok,yok,yok,yok,yok,var,yok,yok,yok,yok,kademe_6,iyi,bilinmiyor,normal,150_200_m2,4_oda,orta_4_7_kat,1_banyo,dusuk,yok,yok,dusuk,orta,yok,yok,5_7_Bucuk_Milyon_TL_Arasi
Igdir,Merkez,Satilik,21_25_arasi,6,Kombi,bilinmiyor,yok,yok,yok,yok,yok,yok,yok,yok,yok,yok,yok,yok,yok,yok,yok,yok,yok,yok,yok,yok,yok,yok,yok,yok,yok,yok,yok,yok,yok,yok,kademe_6,normal,normal,iyi,125_150_m2,4_oda,orta_4_7_kat,1_banyo,yok,yok,yok,dusuk,yok,yok,yok,1_5_2_Milyon_TL_Arasi
Mardin,Artuklu,Satilik,0,Bodrum,Kombi,bilinmiyor,yok,var,var,yok,var,yok,yok,var,yok,yok,var,yok,yok,yok,yok,yok,yok,yok,yok,yok,yok,yok,var,yok,yok,yok,yok,yok,yok,yok,kademe_6,iyi,normal,bilinmiyor,50_75_m2,2_oda,yuksek_8_15_kat,1_banyo,dusuk,yok,dusuk,orta,orta,yuksek,yok,1_5_Milyon_TL_Alti
Van,Ipekyolu,Satilik,0,5,Kombi,bilinmiyor,yok,var,var,var,yok,yok,yok,var,yok,yok,yok,yok,yok,yok,yok,yok,yok,yok,yok,yok,yok,yok,yok,yok,yok,yok,yok,yok,yok,yok,kademe_6,iyi,bilinmiyor,bilinmiyor,50_75_m2,2_oda,orta_4_7_kat,1_banyo,yok,yok,yok,dusuk,yok,yok,yok,1_5_2_Milyon_TL_Arasi
Batman,Merkez,Satilik,1_5_arasi,1,bilinmiyor,bilinmiyor,yok,var,yok,yok,yok,yok,yok,yok,yok,yok,yok,yok,yok,yok,yok,yok,yok,yok,yok,yok,yok,yok,yok,yok,yok,yok,yok,yok,yok,yok,kademe_6,bilinmiyor,bilinmiyor,bilinmiyor,150_200_m2,4_oda,alcak_1_3_kat,2_banyo,yok,yok,yok,dusuk,yok,yok,yok,5_7_Bucuk_Milyon_TL_Arasi
Kars,Merkez,Satilik,1_5_arasi,En_Ust_Kat,Kombi_Dogalgaz,bilinmiyor,yok,var,var,var,yok,yok,var,var,yok,yok,var,yok,yok,var,yok,yok,yok,yok,yok,yok,yok,yok,yok,yok,yok,var,yok,yok,yok,yok,kademe_6,normal,bilinmiyor,normal,75_100_m2,3_oda,orta_4_7_kat,1_banyo,dusuk,yok,yok,orta,orta,yuksek,yok,2_3_Milyon_TL_Arasi
Diyarbakir,Baglar,Satilik,0,4,Merkezi,bilinmiyor,yok,var,var,var,yok,var,yok,yok,yok,yok,yok,yok,yok,yok,yok,yok,yok,yok,yok,yok,yok,yok,yok,yok,yok,yok,yok,yok,yok,yok,kademe_6,normal,normal,iyi,75_100_m2,3_oda,yuksek_8_15_kat,1_banyo,yok,yok,yok,dusuk,yok,yok,yok,4_5_Milyon_TL_Arasi
Siirt,Merkez,Satilik,6_10_arasi,4,Kombi,bilinmiyor,yok,var,var,var,yok,var,var,var,yok,yok,yok,yok,yok,yok,yok,yok,yok,yok,yok,yok,yok,yok,yok,yok,yok,yok,yok,yok,yok,yok,kademe_6,normal,bilinmiyor,kotu,150_200_m2,4_oda,yuksek_8_15_kat,2_banyo,yok,yok,yok,dusuk,dusuk,dusuk,yok,3_4_Milyon_TL_Arasi
Agri,Merkez,Satilik,11_15_arasi,3,Kombi,bilinmiyor,yok,var,var,yok,yok,var,yok,var,yok,yok,yok,yok,yok,yok,yok,yok,yok,yok,yok,yok,yok,yok,yok,yok,yok,var,yok,yok,yok,yok,kademe_6,normal,normal,kotu,150_200_m2,4_oda,orta_4_7_kat,1_banyo,yok,yok,dusuk,orta,orta,yok,yok,2_3_Milyon_TL_Arasi
Van,Edremit,Satilik,6_10_arasi,1,Kombi,bilinmiyor,yok,var,var,var,yok,yok,var,var,yok,yok,var,var,yok,yok,yok,yok,yok,yok,yok,yok,yok,yok,yok,yok,yok,var,yok,yok,yok,yok,kademe_6,normal,normal,bilinmiyor,200_300_m2,4_oda,orta_4_7_kat,2_banyo,dusuk,yok,dusuk,orta,dusuk,orta,yok,4_5_Milyon_TL_Arasi
Van,Gevas,Satilik,0,5,Kombi,bilinmiyor,yok,var,var,var,yok,yok,yok,yok,yok,yok,yok,yok,yok,yok,yok,yok,yok,yok,yok,yok,yok,yok,var,var,yok,var,var,yok,yok,yok,kademe_6,bilinmiyor,normal,bilinmiyor,150_200_m2,4_oda,orta_4_7_kat,1_banyo,yok,yok,yok,dusuk,yok,orta,yok,4_5_Milyon_TL_Arasi
Van,Ercis,Satilik,6_10_arasi,2,Kombi_Dogalgaz,bilinmiyor,yok,var,yok,yok,yok,yok,var,yok,var,yok,yok,yok,yok,yok,yok,yok,yok,yok,yok,yok,yok,yok,yok,yok,yok,yok,yok,yok,yok,yok,kademe_6,iyi,iyi,normal,150_200_m2,4_oda,orta_4_7_kat,1_banyo,yok,yok,yok,dusuk,yok,yok,yok,2_3_Milyon_TL_Arasi
Van,Edremit,Satilik,11_15_arasi,Yuksek_Giris,Kombi_Dogalgaz,bilinmiyor,yok,var,yok,var,yok,yok,var,var,yok,yok,var,yok,yok,var,yok,yok,yok,var,yok,yok,yok,yok,var,yok,yok,var,yok,yok,yok,yok,kademe_6,kotu,bilinmiyor,bilinmiyor,100_125_m2,4_oda,orta_4_7_kat,1_banyo,dusuk,yok,yok,dusuk,orta,yuksek,yok,1_5_2_Milyon_TL_Arasi
Mardin,Kiziltepe,Satilik,1_5_arasi,7,Kombi_Dogalgaz,bilinmiyor,yok,yok,yok,yok,yok,yok,yok,yok,yok,yok,yok,yok,yok,yok,yok,yok,yok,yok,yok,yok,yok,yok,yok,yok,yok,yok,yok,yok,yok,yok,kademe_6,bilinmiyor,bilinmiyor,bilinmiyor,150_200_m2,5_oda,yuksek_8_15_kat,1_banyo,yok,yok,yok,dusuk,yok,yok,yok,4_5_Milyon_TL_Arasi
Diyarbakir,Silvan,Satilik,6_10_arasi,4,Kombi,bilinmiyor,yok,var,var,var,yok,yok,yok,yok,yok,yok,yok,yok,yok,yok,yok,yok,yok,yok,yok,yok,yok,yok,yok,yok,yok,yok,yok,yok,yok,yok,kademe_6,iyi,iyi,bilinmiyor,200_300_m2,5_oda,yuksek_8_15_kat,2_banyo,yok,yok,yok,dusuk,yok,dusuk,yok,5_7_Bucuk_Milyon_TL_Arasi
Van,Ipekyolu,Satilik,0,4,Kombi,bilinmiyor,yok,var,var,var,yok,var,yok,yok,yok,yok,yok,yok,yok,yok,yok,yok,yok,yok,yok,yok,yok,yok,yok,yok,yok,yok,yok,yok,yok,yok,kademe_6,iyi,normal,iyi,75_100_m2,3_oda,orta_4_7_kat,1_banyo,yok,yok,yok,dusuk,yok,dusuk,yok,3_4_Milyon_TL_Arasi
Van,Ipekyolu,Satilik,0,1,Yerden_Isitma,bilinmiyor,yok,var,var,var,yok,var,yok,yok,yok,yok,var,yok,yok,yok,yok,yok,yok,yok,yok,yok,yok,yok,yok,yok,yok,var,yok,yok,yok,yok,kademe_6,iyi,normal,bilinmiyor,50_75_m2,2_oda,orta_4_7_kat,1_banyo,dusuk,yok,dusuk,orta,yuksek,dusuk,yok,1_5_2_Milyon_TL_Arasi
Van,Ipekyolu,Satilik,6_10_arasi,6,Kombi_Dogalgaz,bilinmiyor,yok,var,yok,var,var,yok,var,yok,yok,yok,yok,yok,yok,yok,yok,yok,yok,yok,yok,yok,yok,yok,yok,yok,yok,yok,yok,yok,yok,yok,kademe_6,normal,normal,normal,50_75_m2,2_oda,orta_4_7_kat,1_banyo,yok,yok,yok,dusuk,yok,yok,yok,1_5_2_Milyon_TL_Arasi
Van,Ipekyolu,Satilik,11_15_arasi,4,Soba,bilinmiyor,yok,var,yok,var,yok,yok,yok,yok,yok,yok,yok,yok,yok,yok,yok,yok,yok,yok,yok,yok,yok,yok,yok,yok,yok,yok,yok,yok,yok,yok,kademe_6,iyi,bilinmiyor,kotu,50_75_m2,2_oda,orta_4_7_kat,1_banyo,yok,yok,yok,dusuk,yok,yok,yok,1_5_Milyon_TL_Alti
Van,Ipekyolu,Satilik,21_25_arasi,Bodrum,Kombi_Dogalgaz,bilinmiyor,yok,var,yok,var,yok,yok,yok,yok,yok,yok,yok,yok,yok,yok,yok,yok,yok,yok,yok,yok,yok,yok,yok,yok,yok,yok,yok,yok,yok,yok,kademe_6,normal,normal,bilinmiyor,150_200_m2,4_oda,yuksek_8_15_kat,1_banyo,yok,yok,yok,dusuk,yok,yok,yok,2_3_Milyon_TL_Arasi
Mardin,Midyat,Satilik,0,Ara_Kat,Kombi_Dogalgaz,bilinmiyor,yok,var,var,var,yok,yok,var,var,var,yok,var,yok,yok,var,yok,yok,yok,yok,yok,yok,yok,yok,yok,yok,yok,var,yok,yok,yok,yok,kademe_6,normal,normal,kotu,100_125_m2,3_oda,orta_4_7_kat,1_banyo,yok,yok,yok,dusuk,dusuk,yuksek,yok,3_4_Milyon_TL_Arasi
Van,Ipekyolu,Satilik,0,5,Kombi_Dogalgaz,bilinmiyor,yok,var,yok,var,yok,var,yok,var,yok,yok,yok,yok,yok,yok,yok,yok,yok,yok,yok,yok,yok,yok,yok,yok,yok,yok,yok,yok,yok,yok,kademe_6,bilinmiyor,normal,bilinmiyor,100_125_m2,3_oda,orta_4_7_kat,1_banyo,yok,yok,yok,dusuk,yok,yok,yok,3_4_Milyon_TL_Arasi
Diyarbakir,Kayapinar,Satilik,11_15_arasi,6,Kombi_Dogalgaz,bilinmiyor,yok,var,var,var,yok,yok,var,yok,yok,yok,yok,yok,yok,yok,yok,yok,yok,yok,yok,yok,yok,yok,yok,yok,yok,var,yok,yok,yok,yok,kademe_6,iyi,iyi,iyi,150_200_m2,4_oda,yuksek_8_15_kat,1_banyo,yok,yok,orta,orta,dusuk,yuksek,yok,3_4_Milyon_TL_Arasi
Batman,Merkez,Satilik,21_25_arasi,bilinmiyor,Soba,bilinmiyor,yok,yok,yok,yok,yok,yok,yok,yok,yok,yok,yok,yok,yok,yok,yok,yok,yok,yok,yok,yok,yok,yok,yok,yok,yok,yok,yok,yok,yok,yok,kademe_6,kotu,normal,bilinmiyor,150_200_m2,4_oda,alcak_1_3_kat,1_banyo,yok,yok,yok,dusuk,yok,yok,yok,1_5_2_Milyon_TL_Arasi
Mardin,Kiziltepe,Satilik,1_5_arasi,bilinmiyor,isitma_yok_komur_odun,bilinmiyor,yok,yok,yok,yok,yok,yok,yok,var,yok,yok,yok,yok,yok,yok,yok,yok,yok,yok,yok,yok,yok,yok,yok,yok,yok,yok,var,yok,yok,yok,kademe_6,bilinmiyor,bilinmiyor,bilinmiyor,150_200_m2,6_oda,alcak_1_3_kat,3_banyo_ve_ustu,yok,yok,yok,dusuk,yok,yok,yok,4_5_Milyon_TL_Arasi
Van,Edremit,Satilik,6_10_arasi,Giris,Kombi,bilinmiyor,yok,var,var,var,yok,yok,var,yok,var,yok,var,var,yok,var,yok,yok,yok,yok,yok,yok,yok,yok,yok,yok,yok,var,yok,var,yok,yok,kademe_6,iyi,normal,bilinmiyor,200_300_m2,4_oda,orta_4_7_kat,3_banyo_ve_ustu,dusuk,yok,dusuk,orta,yuksek,yuksek,yok,4_5_Milyon_TL_Arasi
Mardin,Artuklu,Satilik,21_25_arasi,5,Kombi,bilinmiyor,yok,var,var,var,yok,yok,yok,yok,yok,yok,var,var,yok,var,yok,yok,yok,yok,yok,yok,yok,yok,yok,yok,yok,var,var,yok,yok,yok,kademe_6,normal,normal,kotu,300_m2_ve_ustu,7_oda_ve_ustu,orta_4_7_kat,2_banyo,dusuk,yok,yok,dusuk,yuksek,yuksek,yok,3_4_Milyon_TL_Arasi
Diyarbakir,Kayapinar,Satilik,0,5,Merkezi,bilinmiyor,yok,var,var,var,yok,yok,yok,var,yok,yok,var,var,yok,yok,yok,yok,yok,yok,yok,yok,yok,yok,yok,yok,yok,var,yok,yok,yok,yok,kademe_6,bilinmiyor,bilinmiyor,normal,75_100_m2,3_oda,yuksek_8_15_kat,1_banyo,dusuk,yok,yok,dusuk,orta,yok,yok,3_4_Milyon_TL_Arasi
Gumushane,Merkez,Satilik,16_20_arasi,4,Kombi,bilinmiyor,yok,var,var,var,yok,var,var,var,var,yok,var,yok,yok,var,yok,yok,yok,yok,yok,yok,yok,yok,yok,yok,yok,var,yok,yok,yok,yok,kademe_6,bilinmiyor,bilinmiyor,bilinmiyor,150_200_m2,5_oda,yuksek_8_15_kat,1_banyo,dusuk,yok,dusuk,orta,orta,orta,yok,7_Bucuk_10_Milyon_TL_Arasi
Mardin,Artuklu,Satilik,6_10_arasi,5,Kombi,bilinmiyor,yok,var,var,var,yok,yok,yok,yok,yok,yok,yok,yok,yok,yok,yok,yok,yok,yok,yok,yok,yok,yok,yok,yok,yok,yok,yok,yok,yok,yok,kademe_6,normal,normal,normal,150_200_m2,4_oda,orta_4_7_kat,1_banyo,yok,yok,yok,dusuk,yok,yok,yok,3_4_Milyon_TL_Arasi
Van,Ipekyolu,Satilik,1_5_arasi,1,Kombi_Dogalgaz,bilinmiyor,yok,var,var,var,var,var,yok,yok,var,yok,yok,yok,yok,yok,yok,yok,yok,yok,yok,yok,yok,yok,yok,yok,yok,yok,yok,yok,yok,yok,kademe_6,iyi,normal,iyi,100_125_m2,7_oda_ve_ustu,orta_4_7_kat,2_banyo,yok,yok,yok,dusuk,yok,yok,yok,3_4_Milyon_TL_Arasi
Mardin,Artuklu,Satilik,0,1,Kombi,bilinmiyor,yok,var,var,var,yok,yok,yok,var,yok,yok,yok,yok,yok,yok,yok,yok,yok,yok,yok,yok,yok,yok,var,yok,yok,yok,yok,yok,yok,yok,kademe_6,bilinmiyor,bilinmiyor,normal,100_125_m2,3_oda,yuksek_8_15_kat,1_banyo,dusuk,yok,dusuk,orta,yuksek,orta,yok,2_3_Milyon_TL_Arasi
Batman,Merkez,Satilik,31_ve_uzeri,Bahce,Soba,bilinmiyor,yok,var,yok,var,yok,var,var,var,var,yok,var,yok,yok,yok,yok,yok,yok,yok,yok,yok,yok,yok,yok,yok,yok,var,yok,yok,yok,yok,kademe_6,bilinmiyor,bilinmiyor,bilinmiyor,200_300_m2,4_oda,bilinmiyor,2_banyo,yok,dusuk,yok,dusuk,orta,orta,yok,2_3_Milyon_TL_Arasi
Mardin,Artuklu,Satilik,16_20_arasi,Bahce,Soba,bilinmiyor,yok,var,yok,yok,yok,yok,yok,yok,yok,yok,yok,yok,yok,yok,yok,yok,yok,yok,yok,yok,yok,yok,yok,yok,yok,yok,yok,yok,yok,yok,kademe_6,kotu,iyi,iyi,125_150_m2,4_oda,bilinmiyor,2_banyo,yok,yok,yok,dusuk,yok,yok,yok,2_3_Milyon_TL_Arasi
Mardin,Artuklu,Satilik,1_5_arasi,13,Kombi_Dogalgaz,bilinmiyor,yok,var,var,yok,yok,yok,yok,yok,yok,yok,yok,yok,yok,yok,yok,yok,yok,yok,yok,yok,yok,yok,yok,yok,yok,yok,var,yok,yok,yok,kademe_6,iyi,iyi,normal,300_m2_ve_ustu,6_oda,yuksek_8_15_kat,3_banyo_ve_ustu,yok,yok,yok,dusuk,yok,yok,yok,3_4_Milyon_TL_Arasi
Van,Ipekyolu,Satilik,1_5_arasi,3,Kombi,bilinmiyor,yok,var,var,yok,yok,yok,yok,yok,yok,yok,yok,yok,yok,yok,yok,yok,yok,yok,yok,yok,yok,yok,yok,yok,yok,yok,yok,yok,yok,yok,kademe_6,normal,normal,iyi,75_100_m2,3_oda,orta_4_7_kat,1_banyo,yok,yok,yok,dusuk,yok,yok,yok,2_3_Milyon_TL_Arasi
Mardin,Kiziltepe,Satilik,6_10_arasi,1,bilinmiyor,bilinmiyor,yok,var,var,yok,yok,yok,yok,yok,yok,yok,yok,yok,yok,yok,yok,yok,yok,yok,yok,yok,yok,yok,yok,yok,yok,yok,yok,yok,yok,yok,kademe_6,kotu,bilinmiyor,kotu,100_125_m2,4_oda,alcak_1_3_kat,1_banyo,yok,yok,yok,dusuk,yok,yok,yok,2_3_Milyon_TL_Arasi
Van,Tusba,Satilik,11_15_arasi,6,Kombi_Dogalgaz,bilinmiyor,yok,var,var,var,yok,yok,var,yok,var,yok,yok,yok,yok,yok,yok,yok,yok,yok,yok,yok,yok,yok,yok,yok,yok,yok,yok,yok,yok,yok,kademe_6,normal,bilinmiyor,kotu,150_200_m2,4_oda,orta_4_7_kat,1_banyo,yok,yok,yok,dusuk,dusuk,yok,yok,3_4_Milyon_TL_Arasi
Diyarbakir,Kayapinar,Satilik,11_15_arasi,1,Kombi_Dogalgaz,bilinmiyor,yok,yok,yok,yok,yok,yok,yok,yok,yok,yok,yok,yok,yok,yok,yok,yok,yok,yok,yok,yok,yok,yok,yok,yok,yok,yok,yok,yok,yok,yok,kademe_6,normal,normal,bilinmiyor,75_100_m2,3_oda,orta_4_7_kat,1_banyo,yok,yok,yok,dusuk,yok,yok,yok,2_3_Milyon_TL_Arasi
Agri,Merkez,Satilik,1_5_arasi,5,Kombi_Dogalgaz,bilinmiyor,yok,var,var,var,yok,var,yok,var,yok,yok,var,yok,yok,yok,yok,yok,yok,yok,yok,yok,yok,yok,yok,yok,yok,var,yok,yok,yok,yok,kademe_6,iyi,bilinmiyor,kotu,125_150_m2,4_oda,orta_4_7_kat,2_banyo,dusuk,yok,yok,dusuk,orta,yuksek,yok,3_4_Milyon_TL_Arasi
Van,Tusba,Satilik,11_15_arasi,En_Ust_Kat,Kombi_Dogalgaz,bilinmiyor,yok,var,yok,var,yok,yok,var,yok,var,yok,var,yok,yok,yok,yok,yok,yok,yok,yok,yok,yok,yok,yok,yok,yok,yok,yok,yok,yok,yok,kademe_6,normal,bilinmiyor,normal,100_125_m2,4_oda,orta_4_7_kat,1_banyo,dusuk,yok,yok,dusuk,dusuk,orta,yok,2_3_Milyon_TL_Arasi
Van,Tusba,Satilik,11_15_arasi,1,Kombi,bilinmiyor,yok,var,yok,var,yok,yok,var,var,yok,yok,yok,yok,yok,yok,yok,yok,yok,yok,yok,yok,yok,yok,yok,yok,yok,yok,yok,yok,yok,yok,kademe_6,normal,bilinmiyor,normal,100_125_m2,4_oda,orta_4_7_kat,1_banyo,yok,yok,yok,dusuk,yok,yok,yok,2_3_Milyon_TL_Arasi
Van,Ipekyolu,Satilik,1_5_arasi,Bahce,Yerden_Isitma,bilinmiyor,yok,yok,yok,var,yok,var,var,var,var,yok,var,var,yok,var,yok,yok,yok,yok,yok,yok,yok,yok,yok,yok,yok,var,var,yok,yok,yok,kademe_6,normal,iyi,bilinmiyor,200_300_m2,6_oda,alcak_1_3_kat,3_banyo_ve_ustu,dusuk,dusuk,dusuk,orta,yuksek,yuksek,yok,10_Milyon_TL_Ustu
Bitlis,Tatvan,Satilik,1_5_arasi,4,Kombi_Dogalgaz,bilinmiyor,yok,var,var,var,var,yok,yok,var,yok,yok,var,yok,yok,yok,yok,yok,yok,yok,yok,yok,yok,yok,yok,yok,yok,var,yok,yok,yok,yok,kademe_6,kotu,normal,kotu,75_100_m2,2_oda,yuksek_8_15_kat,1_banyo,yok,yok,yok,dusuk,dusuk,yuksek,yok,2_3_Milyon_TL_Arasi
Bitlis,Tatvan,Satilik,1_5_arasi,1,bilinmiyor,bilinmiyor,yok,var,yok,yok,yok,yok,yok,yok,yok,yok,yok,yok,yok,yok,yok,yok,yok,yok,yok,yok,yok,yok,yok,yok,yok,yok,yok,yok,yok,yok,kademe_6,bilinmiyor,bilinmiyor,bilinmiyor,125_150_m2,4_oda,alcak_1_3_kat,1_banyo,yok,yok,yok,dusuk,yok,yok,yok,4_5_Milyon_TL_Arasi
Van,Ipekyolu,Satilik,0,1,Kombi_Dogalgaz,bilinmiyor,yok,var,yok,var,yok,yok,var,yok,yok,yok,yok,yok,yok,yok,yok,yok,yok,yok,yok,yok,yok,yok,yok,yok,yok,yok,yok,yok,yok,yok,kademe_6,normal,normal,iyi,50_75_m2,2_oda,orta_4_7_kat,1_banyo,yok,yok,yok,dusuk,yok,yok,yok,1_5_2_Milyon_TL_Arasi
Mus,Merkez,Satilik,11_15_arasi,3,Dogalgaz_Sobasi,bilinmiyor,yok,yok,yok,var,yok,yok,yok,yok,yok,yok,yok,yok,yok,yok,yok,yok,yok,yok,yok,yok,yok,yok,yok,yok,yok,yok,yok,yok,yok,yok,kademe_6,normal,normal,bilinmiyor,150_200_m2,4_oda,orta_4_7_kat,1_banyo,yok,yok,yok,yok,yok,yok,yok,3_4_Milyon_TL_Arasi
Van,Tusba,Satilik,16_20_arasi,Yuksek_Giris,Soba,bilinmiyor,yok,yok,yok,var,yok,yok,var,var,yok,yok,yok,yok,yok,yok,yok,yok,yok,yok,yok,yok,yok,yok,yok,yok,yok,yok,yok,yok,yok,yok,kademe_6,kotu,bilinmiyor,bilinmiyor,125_150_m2,4_oda,orta_4_7_kat,1_banyo,yok,yok,yok,dusuk,yok,yok,yok,1_5_2_Milyon_TL_Arasi
Diyarbakir,Kayapinar,Satilik,31_ve_uzeri,5,Kombi,bilinmiyor,yok,yok,yok,yok,yok,yok,yok,yok,yok,yok,yok,yok,yok,yok,yok,yok,yok,yok,yok,yok,yok,yok,yok,yok,yok,yok,yok,yok,yok,yok,kademe_6,normal,iyi,iyi,150_200_m2,4_oda,yuksek_8_15_kat,1_banyo,yok,yok,yok,dusuk,yok,yok,yok,2_3_Milyon_TL_Arasi
Van,Tusba,Satilik,6_10_arasi,4,Kombi_Dogalgaz,bilinmiyor,yok,var,yok,yok,yok,yok,yok,var,yok,yok,var,yok,yok,var,yok,yok,yok,yok,yok,yok,yok,yok,yok,var,yok,var,yok,yok,yok,yok,kademe_6,kotu,normal,kotu,100_125_m2,4_oda,orta_4_7_kat,1_banyo,yok,yok,yok,dusuk,orta,yuksek,yok,2_3_Milyon_TL_Arasi
Van,Ipekyolu,Satilik,1_5_arasi,5,Kombi_Dogalgaz,bilinmiyor,yok,var,var,var,yok,var,var,yok,yok,yok,var,var,yok,yok,yok,yok,yok,yok,yok,yok,yok,yok,yok,var,yok,var,var,yok,yok,yok,kademe_6,normal,iyi,iyi,200_300_m2,5_oda,orta_4_7_kat,2_banyo,dusuk,dusuk,yok,orta,dusuk,yuksek,yok,7_Bucuk_10_Milyon_TL_Arasi
Diyarbakir,Kayapinar,Satilik,11_15_arasi,1,bilinmiyor,bilinmiyor,yok,var,yok,yok,yok,yok,yok,yok,yok,yok,yok,yok,yok,yok,yok,yok,yok,yok,yok,yok,yok,yok,yok,yok,yok,yok,yok,yok,yok,yok,kademe_6,bilinmiyor,bilinmiyor,bilinmiyor,150_200_m2,4_oda,alcak_1_3_kat,1_banyo,yok,yok,yok,dusuk,yok,yok,yok,5_7_Bucuk_Milyon_TL_Arasi
Mardin,Artuklu,Satilik,0,3,Kombi_Dogalgaz,bilinmiyor,yok,var,var,var,yok,yok,var,var,var,yok,var,var,yok,yok,yok,yok,yok,yok,yok,yok,yok,yok,yok,yok,yok,var,yok,yok,yok,yok,kademe_6,iyi,iyi,bilinmiyor,300_m2_ve_ustu,6_oda,yuksek_8_15_kat,2_banyo,dusuk,dusuk,dusuk,dusuk,yok,yuksek,yok,5_7_Bucuk_Milyon_TL_Arasi
Van,Ercis,Satilik,0,5,Kombi_Dogalgaz,bilinmiyor,yok,yok,yok,yok,yok,yok,var,var,yok,yok,yok,yok,yok,yok,yok,yok,yok,yok,yok,yok,yok,yok,yok,yok,yok,yok,yok,yok,yok,yok,kademe_6,iyi,iyi,bilinmiyor,75_100_m2,3_oda,orta_4_7_kat,1_banyo,yok,yok,yok,dusuk,yok,yok,yok,3_4_Milyon_TL_Arasi
Diyarbakir,Yenisehir,Satilik,0,7,Yerden_Isitma,bilinmiyor,yok,yok,yok,yok,yok,yok,yok,yok,yok,yok,yok,yok,yok,yok,yok,yok,yok,yok,yok,yok,yok,yok,yok,yok,yok,yok,yok,yok,yok,yok,kademe_6,normal,iyi,bilinmiyor,75_100_m2,3_oda,yuksek_8_15_kat,2_banyo,yok,yok,yok,dusuk,dusuk,dusuk,yok,3_4_Milyon_TL_Arasi
Mardin,Artuklu,Satilik,0,3,Kombi,bilinmiyor,yok,var,var,var,yok,yok,var,yok,var,yok,yok,yok,yok,yok,yok,yok,yok,yok,yok,yok,yok,yok,var,yok,yok,var,yok,yok,yok,yok,kademe_6,iyi,normal,bilinmiyor,75_100_m2,2_oda,yuksek_8_15_kat,1_banyo,yok,yok,yok,dusuk,dusuk,dusuk,yok,1_5_2_Milyon_TL_Arasi
Van,Ipekyolu,Satilik,1_5_arasi,Ara_Kat,Kombi_Dogalgaz,bilinmiyor,yok,var,yok,var,yok,yok,yok,var,yok,yok,yok,yok,yok,yok,yok,yok,yok,yok,yok,yok,yok,yok,yok,yok,yok,yok,yok,yok,yok,yok,kademe_6,normal,normal,bilinmiyor,75_100_m2,3_oda,orta_4_7_kat,1_banyo,yok,yok,yok,dusuk,yok,yok,yok,2_3_Milyon_TL_Arasi
Van,Edremit,Satilik,1_5_arasi,Bahce,Soba,bilinmiyor,yok,var,yok,yok,yok,var,var,var,yok,yok,yok,yok,yok,yok,yok,yok,yok,yok,yok,yok,var,var,var,var,yok,var,yok,yok,yok,yok,kademe_6,bilinmiyor,bilinmiyor,bilinmiyor,100_125_m2,3_oda,alcak_1_3_kat,1_banyo,yok,yok,yok,dusuk,dusuk,yok,yok,5_7_Bucuk_Milyon_TL_Arasi
Mardin,Nusaybin,Satilik,1_5_arasi,2,Kombi,bilinmiyor,yok,var,var,var,yok,yok,yok,yok,yok,yok,yok,yok,yok,yok,yok,yok,yok,yok,yok,yok,yok,yok,yok,yok,yok,yok,yok,yok,yok,yok,kademe_6,kotu,iyi,bilinmiyor,150_200_m2,4_oda,orta_4_7_kat,2_banyo,yok,yok,yok,dusuk,yok,yok,yok,4_5_Milyon_TL_Arasi
Diyarbakir,Kayapinar,Satilik,11_15_arasi,10,Kombi_Dogalgaz,bilinmiyor,yok,var,var,var,yok,yok,yok,yok,var,yok,yok,var,yok,yok,yok,yok,yok,yok,yok,yok,yok,yok,yok,yok,yok,var,yok,yok,yok,yok,kademe_6,normal,normal,bilinmiyor,200_300_m2,4_oda,yuksek_8_15_kat,2_banyo,orta,dusuk,yok,dusuk,orta,yuksek,yok,5_7_Bucuk_Milyon_TL_Arasi
Mardin,Artuklu,Satilik,6_10_arasi,12,Kombi_Dogalgaz,bilinmiyor,yok,var,var,yok,yok,yok,yok,yok,yok,yok,yok,yok,yok,yok,yok,yok,yok,yok,yok,yok,yok,yok,yok,yok,yok,yok,yok,yok,yok,yok,kademe_6,normal,kotu,bilinmiyor,150_200_m2,4_oda,yuksek_8_15_kat,1_banyo,yok,yok,yok,dusuk,dusuk,yok,yok,2_3_Milyon_TL_Arasi
Van,Tusba,Satilik,11_15_arasi,bilinmiyor,Kombi,bilinmiyor,yok,var,yok,yok,yok,yok,yok,yok,yok,yok,yok,yok,yok,yok,yok,yok,yok,yok,yok,yok,yok,yok,yok,yok,yok,yok,yok,yok,yok,yok,kademe_6,kotu,normal,bilinmiyor,200_300_m2,4_oda,alcak_1_3_kat,2_banyo,yok,yok,yok,dusuk,yok,yok,yok,7_Bucuk_10_Milyon_TL_Arasi
Van,Ipekyolu,Satilik,11_15_arasi,7,Kombi,bilinmiyor,yok,var,yok,var,yok,var,var,yok,var,yok,yok,yok,yok,yok,yok,yok,yok,yok,yok,yok,yok,yok,yok,yok,yok,var,yok,yok,yok,yok,kademe_6,kotu,kotu,bilinmiyor,150_200_m2,4_oda,yuksek_8_15_kat,1_banyo,dusuk,dusuk,yok,dusuk,dusuk,dusuk,yok,4_5_Milyon_TL_Arasi
Diyarbakir,Baglar,Satilik,6_10_arasi,Yuksek_Giris,Kombi,bilinmiyor,yok,var,var,var,yok,var,yok,yok,yok,yok,yok,yok,yok,yok,yok,yok,yok,yok,yok,yok,yok,yok,yok,yok,yok,yok,yok,yok,yok,yok,kademe_6,bilinmiyor,iyi,bilinmiyor,100_125_m2,3_oda,yuksek_8_15_kat,1_banyo,yok,yok,yok,dusuk,yok,dusuk,yok,3_4_Milyon_TL_Arasi
Adiyaman,Merkez,Satilik,1_5_arasi,Bahce,Kombi,bilinmiyor,yok,var,yok,var,var,var,var,var,var,yok,var,var,yok,var,yok,yok,yok,yok,yok,yok,yok,yok,var,yok,yok,var,var,yok,yok,yok,kademe_6,iyi,normal,iyi,300_m2_ve_ustu,7_oda_ve_ustu,alcak_1_3_kat,2_banyo,yok,orta,yok,dusuk,dusuk,yuksek,yok,7_Bucuk_10_Milyon_TL_Arasi
Batman,Merkez,Satilik,1_5_arasi,5,Kombi,bilinmiyor,yok,var,var,var,yok,yok,var,var,yok,yok,var,yok,yok,yok,yok,yok,yok,yok,yok,yok,yok,yok,yok,yok,yok,var,yok,yok,yok,yok,kademe_6,normal,iyi,iyi,0_50_m2,2_oda,orta_4_7_kat,1_banyo,dusuk,yok,yok,dusuk,orta,yuksek,yok,1_5_2_Milyon_TL_Arasi
Van,Ercis,Satilik,11_15_arasi,bilinmiyor,Dogalgaz_Sobasi,bilinmiyor,yok,yok,yok,yok,yok,yok,yok,yok,yok,yok,yok,yok,yok,yok,yok,yok,yok,yok,yok,yok,yok,yok,yok,yok,yok,yok,yok,yok,yok,yok,kademe_6,kotu,normal,kotu,300_m2_ve_ustu,4_oda,alcak_1_3_kat,1_banyo,yok,yok,yok,dusuk,yok,yok,yok,10_Milyon_TL_Ustu
Diyarbakir,Kayapinar,Satilik,0,5,Yerden_Isitma,bilinmiyor,yok,var,var,var,yok,yok,var,yok,yok,yok,yok,yok,yok,yok,yok,yok,yok,yok,yok,yok,yok,yok,yok,yok,yok,yok,yok,yok,yok,yok,kademe_6,iyi,iyi,iyi,150_200_m2,4_oda,yuksek_8_15_kat,2_banyo,yok,yok,yok,dusuk,yok,dusuk,yok,7_Bucuk_10_Milyon_TL_Arasi
Diyarbakir,Yenisehir,Satilik,26_30_arasi,En_Ust_Kat,Kombi_Dogalgaz,bilinmiyor,yok,yok,yok,var,var,yok,yok,yok,yok,yok,yok,yok,yok,yok,yok,yok,yok,yok,yok,yok,yok,yok,yok,yok,yok,yok,yok,yok,yok,yok,kademe_6,kotu,kotu,bilinmiyor,150_200_m2,6_oda,yuksek_8_15_kat,2_banyo,yok,yok,yok,dusuk,yok,yok,yok,3_4_Milyon_TL_Arasi
Batman,Merkez,Satilik,1_5_arasi,1,Kombi,bilinmiyor,yok,var,yok,yok,yok,yok,yok,yok,yok,yok,yok,yok,yok,yok,yok,yok,yok,yok,yok,yok,yok,yok,yok,yok,yok,yok,yok,yok,yok,yok,kademe_6,iyi,bilinmiyor,bilinmiyor,0_50_m2,2_oda,orta_4_7_kat,1_banyo,yok,yok,yok,yok,yok,yok,yok,1_5_2_Milyon_TL_Arasi
Diyarbakir,Yenisehir,Satilik,6_10_arasi,En_Ust_Kat,Merkezi,bilinmiyor,yok,var,var,var,yok,yok,yok,yok,yok,yok,var,yok,yok,var,yok,yok,yok,var,yok,yok,yok,yok,yok,yok,yok,var,yok,yok,yok,yok,kademe_6,normal,kotu,kotu,150_200_m2,4_oda,yuksek_8_15_kat,2_banyo,orta,yok,yok,dusuk,orta,yuksek,yuksek,4_5_Milyon_TL_Arasi
Van,Ipekyolu,Satilik,6_10_arasi,Kot_1,Kombi_Dogalgaz,bilinmiyor,yok,var,yok,var,yok,var,yok,var,yok,yok,yok,yok,yok,yok,yok,yok,yok,yok,yok,yok,yok,yok,yok,yok,yok,yok,yok,yok,yok,yok,kademe_6,normal,bilinmiyor,kotu,50_75_m2,2_oda,orta_4_7_kat,1_banyo,yok,yok,yok,orta,orta,yok,yok,1_5_Milyon_TL_Alti
Agri,Merkez,Satilik,1_5_arasi,Ara_Kat,Kombi_Dogalgaz,bilinmiyor,yok,var,var,var,yok,yok,yok,var,yok,yok,yok,var,yok,yok,yok,yok,yok,yok,yok,yok,yok,yok,yok,yok,yok,yok,yok,yok,yok,yok,kademe_6,kotu,normal,iyi,100_125_m2,4_oda,alcak_1_3_kat,2_banyo,yok,yok,yok,dusuk,dusuk,yuksek,yok,3_4_Milyon_TL_Arasi
Batman,Merkez,Satilik,11_15_arasi,3,Kombi_Dogalgaz,bilinmiyor,yok,yok,var,var,yok,yok,yok,yok,yok,yok,yok,yok,yok,yok,yok,yok,yok,yok,yok,yok,yok,yok,yok,yok,yok,yok,yok,yok,yok,yok,kademe_6,bilinmiyor,bilinmiyor,bilinmiyor,75_100_m2,2_oda,yuksek_8_15_kat,1_banyo,yok,yok,yok,yok,yok,yok,yok,1_5_2_Milyon_TL_Arasi
Mardin,Artuklu,Satilik,0,5,Kombi,bilinmiyor,yok,var,yok,var,yok,yok,yok,var,yok,yok,var,yok,yok,var,yok,yok,yok,yok,yok,yok,yok,yok,var,yok,yok,var,yok,yok,yok,yok,kademe_6,iyi,bilinmiyor,kotu,75_100_m2,2_oda,yuksek_8_15_kat,1_banyo,dusuk,dusuk,yok,dusuk,dusuk,yuksek,yok,1_5_2_Milyon_TL_Arasi
Batman,Merkez,Satilik,0,5,Yerden_Isitma,bilinmiyor,yok,var,var,var,yok,yok,var,yok,var,yok,var,yok,yok,yok,yok,yok,yok,yok,yok,yok,yok,yok,yok,yok,yok,var,yok,yok,yok,yok,kademe_6,bilinmiyor,normal,bilinmiyor,50_75_m2,2_oda,yuksek_8_15_kat,bilinmiyor,dusuk,yok,yok,orta,orta,orta,yok,2_3_Milyon_TL_Arasi
Van,Ipekyolu,Satilik,6_10_arasi,2,Kombi,bilinmiyor,yok,var,var,var,yok,yok,var,var,yok,yok,yok,yok,yok,yok,yok,yok,yok,yok,yok,yok,yok,yok,yok,yok,yok,var,yok,yok,yok,yok,kademe_6,bilinmiyor,iyi,bilinmiyor,150_200_m2,4_oda,yuksek_8_15_kat,1_banyo,yok,yok,dusuk,dusuk,orta,dusuk,yok,4_5_Milyon_TL_Arasi
Van,Ipekyolu,Satilik,1_5_arasi,Ara_Kat,Kombi_Dogalgaz,bilinmiyor,yok,var,var,var,var,yok,var,yok,var,yok,var,yok,yok,yok,yok,yok,yok,yok,yok,yok,yok,yok,yok,yok,yok,var,yok,yok,yok,yok,kademe_6,normal,bilinmiyor,iyi,50_75_m2,2_oda,orta_4_7_kat,1_banyo,dusuk,yok,yok,dusuk,dusuk,yuksek,yok,1_5_2_Milyon_TL_Arasi
Agri,Merkez,Satilik,1_5_arasi,Kot_2,Kombi_Dogalgaz,bilinmiyor,yok,var,var,var,yok,yok,yok,yok,yok,yok,yok,yok,yok,yok,yok,yok,yok,yok,yok,yok,yok,yok,yok,yok,yok,yok,yok,yok,yok,yok,kademe_6,normal,normal,bilinmiyor,75_100_m2,3_oda,orta_4_7_kat,1_banyo,dusuk,yok,yok,yok,yok,dusuk,yok,2_3_Milyon_TL_Arasi
Gumushane,Merkez,Satilik,6_10_arasi,12,Kombi,bilinmiyor,yok,var,var,var,yok,yok,yok,yok,yok,yok,yok,yok,yok,yok,yok,yok,yok,yok,yok,yok,yok,yok,yok,yok,yok,yok,yok,yok,yok,yok,kademe_6,normal,normal,bilinmiyor,150_200_m2,4_oda,yuksek_8_15_kat,2_banyo,yok,yok,yok,dusuk,yok,yok,yok,3_4_Milyon_TL_Arasi
Adiyaman,Merkez,Satilik,0,5,Kombi,bilinmiyor,yok,var,var,var,yok,var,yok,var,yok,yok,var,yok,yok,yok,yok,yok,yok,yok,yok,yok,yok,yok,yok,yok,yok,yok,yok,yok,yok,yok,kademe_6,kotu,iyi,iyi,100_125_m2,4_oda,orta_4_7_kat,1_banyo,yok,yok,yok,dusuk,orta,dusuk,yok,2_3_Milyon_TL_Arasi
Diyarbakir,Yenisehir,Satilik,1_5_arasi,3,Kombi,bilinmiyor,yok,yok,yok,yok,yok,yok,yok,yok,yok,yok,yok,yok,yok,yok,yok,yok,yok,yok,yok,yok,yok,yok,yok,yok,yok,yok,yok,yok,yok,yok,kademe_6,bilinmiyor,bilinmiyor,bilinmiyor,75_100_m2,3_oda,orta_4_7_kat,1_banyo,yok,yok,yok,dusuk,yok,yok,yok,2_3_Milyon_TL_Arasi
Batman,Merkez,Satilik,6_10_arasi,4,Soba,bilinmiyor,yok,var,yok,var,yok,var,var,var,var,yok,yok,yok,yok,yok,yok,yok,yok,yok,yok,yok,yok,yok,yok,yok,yok,var,yok,yok,yok,yok,kademe_6,normal,iyi,kotu,100_125_m2,3_oda,orta_4_7_kat,1_banyo,yok,yok,yok,dusuk,yok,dusuk,yok,1_5_2_Milyon_TL_Arasi
Van,Ipekyolu,Satilik,1_5_arasi,1,Kombi,bilinmiyor,yok,var,var,var,yok,yok,var,yok,yok,yok,var,yok,yok,yok,yok,yok,yok,yok,yok,yok,yok,yok,yok,yok,yok,var,yok,yok,yok,yok,kademe_6,kotu,normal,normal,75_100_m2,2_oda,orta_4_7_kat,1_banyo,dusuk,yok,yok,dusuk,orta,dusuk,yok,2_3_Milyon_TL_Arasi
Agri,Dogubayazit,Satilik,6_10_arasi,1,Kombi,bilinmiyor,yok,var,var,yok,var,yok,yok,yok,yok,yok,yok,yok,yok,yok,yok,yok,yok,yok,yok,yok,yok,yok,yok,yok,yok,yok,yok,yok,yok,yok,kademe_6,normal,normal,bilinmiyor,50_75_m2,2_oda,orta_4_7_kat,1_banyo,yok,yok,yok,dusuk,yok,yok,yok,1_5_Milyon_TL_Alti
Van,Edremit,Satilik,11_15_arasi,3,Kombi,bilinmiyor,yok,var,var,var,yok,yok,var,var,var,yok,var,yok,yok,yok,yok,yok,yok,yok,yok,yok,yok,yok,var,yok,yok,yok,yok,yok,yok,yok,kademe_6,normal,kotu,bilinmiyor,125_150_m2,4_oda,orta_4_7_kat,1_banyo,yok,yok,yok,dusuk,yok,orta,yok,2_3_Milyon_TL_Arasi
Diyarbakir,Baglar,Satilik,21_25_arasi,6,Dogalgaz_Sobasi,bilinmiyor,yok,var,var,var,yok,yok,var,var,yok,yok,yok,yok,yok,yok,yok,yok,yok,yok,yok,yok,yok,yok,yok,yok,yok,yok,yok,yok,yok,yok,kademe_6,normal,kotu,bilinmiyor,150_200_m2,5_oda,orta_4_7_kat,1_banyo,yok,yok,yok,dusuk,dusuk,yok,yok,2_3_Milyon_TL_Arasi
Adiyaman,Merkez,Satilik,0,1,Yerden_Isitma,bilinmiyor,yok,var,yok,var,yok,yok,yok,yok,yok,yok,yok,yok,yok,yok,yok,yok,yok,yok,yok,yok,yok,yok,yok,yok,yok,yok,yok,yok,yok,yok,kademe_6,normal,normal,kotu,100_125_m2,3_oda,orta_4_7_kat,1_banyo,yok,yok,yok,yok,yok,yok,yok,2_3_Milyon_TL_Arasi
Diyarbakir,Kayapinar,Satilik,16_20_arasi,Bahce,Kombi,bilinmiyor,yok,yok,yok,var,yok,yok,yok,yok,yok,yok,yok,yok,yok,yok,yok,yok,yok,yok,yok,yok,yok,yok,yok,yok,yok,yok,yok,yok,yok,yok,kademe_6,normal,iyi,kotu,300_m2_ve_ustu,6_oda,alcak_1_3_kat,2_banyo,yok,yok,yok,yok,yok,yok,yok,10_Milyon_TL_Ustu
Mardin,Midyat,Satilik,0,1,Kombi_Dogalgaz,bilinmiyor,yok,var,var,var,yok,var,var,var,var,yok,var,var,yok,var,yok,yok,yok,yok,yok,yok,yok,yok,yok,yok,yok,var,yok,yok,yok,yok,kademe_6,iyi,iyi,iyi,150_200_m2,4_oda,orta_4_7_kat,2_banyo,dusuk,yok,yok,orta,orta,yuksek,yok,5_7_Bucuk_Milyon_TL_Arasi
Mardin,Midyat,Satilik,1_5_arasi,3,Gunes_Enerjisi,bilinmiyor,yok,var,var,var,yok,var,yok,var,yok,yok,var,yok,yok,yok,yok,yok,yok,yok,yok,yok,yok,yok,yok,yok,yok,var,yok,yok,yok,yok,kademe_6,bilinmiyor,normal,normal,150_200_m2,4_oda,yuksek_8_15_kat,2_banyo,yok,dusuk,yok,dusuk,dusuk,orta,yok,5_7_Bucuk_Milyon_TL_Arasi
Mardin,Nusaybin,Satilik,11_15_arasi,1,bilinmiyor,bilinmiyor,yok,var,yok,yok,yok,yok,yok,yok,yok,yok,yok,yok,yok,yok,yok,yok,yok,yok,yok,yok,yok,yok,yok,yok,yok,yok,yok,yok,yok,yok,kademe_6,bilinmiyor,bilinmiyor,bilinmiyor,100_125_m2,4_oda,alcak_1_3_kat,1_banyo,yok,yok,yok,dusuk,yok,yok,yok,2_3_Milyon_TL_Arasi
Van,Ipekyolu,Satilik,0,1,Kombi,bilinmiyor,yok,var,var,var,yok,yok,var,var,yok,yok,var,yok,yok,yok,yok,yok,yok,yok,yok,yok,yok,yok,yok,yok,yok,var,yok,yok,yok,yok,kademe_6,normal,normal,kotu,75_100_m2,3_oda,orta_4_7_kat,1_banyo,dusuk,yok,dusuk,orta,yuksek,dusuk,yok,3_4_Milyon_TL_Arasi
Batman,Merkez,Satilik,0,Ara_Kat,Kombi_Dogalgaz,bilinmiyor,yok,yok,yok,yok,yok,yok,yok,yok,var,yok,yok,yok,yok,yok,yok,yok,yok,yok,yok,yok,yok,yok,yok,yok,yok,yok,yok,yok,yok,yok,kademe_6,iyi,bilinmiyor,iyi,150_200_m2,4_oda,orta_4_7_kat,2_banyo,yok,yok,yok,dusuk,yok,yok,yok,4_5_Milyon_TL_Arasi
Batman,Merkez,Satilik,11_15_arasi,6,Kombi_Dogalgaz,bilinmiyor,yok,var,var,var,yok,var,yok,var,var,yok,var,yok,yok,yok,yok,yok,yok,yok,yok,yok,yok,yok,yok,yok,yok,var,yok,yok,yok,yok,kademe_6,bilinmiyor,bilinmiyor,bilinmiyor,125_150_m2,4_oda,yuksek_8_15_kat,1_banyo,yok,yok,yok,dusuk,orta,orta,yok,2_3_Milyon_TL_Arasi
Batman,Merkez,Satilik,1_5_arasi,4,Kombi,bilinmiyor,yok,var,yok,var,yok,yok,yok,yok,yok,yok,yok,yok,yok,yok,yok,yok,yok,yok,yok,yok,yok,yok,yok,yok,yok,yok,yok,yok,yok,yok,kademe_6,iyi,iyi,bilinmiyor,150_200_m2,4_oda,yuksek_8_15_kat,2_banyo,yok,yok,yok,dusuk,yok,yok,yok,4_5_Milyon_TL_Arasi
Kars,Merkez,Satilik,1_5_arasi,4,Kombi_Dogalgaz,bilinmiyor,yok,var,var,yok,yok,yok,yok,var,yok,yok,yok,yok,yok,yok,yok,yok,yok,yok,yok,yok,yok,yok,yok,yok,yok,yok,var,yok,yok,yok,kademe_6,normal,normal,normal,125_150_m2,4_oda,orta_4_7_kat,2_banyo,yok,dusuk,yok,dusuk,yok,orta,yok,3_4_Milyon_TL_Arasi
Mardin,Artuklu,Satilik,6_10_arasi,9,Kombi,bilinmiyor,yok,var,var,var,yok,yok,yok,yok,yok,yok,var,var,yok,var,yok,yok,yok,yok,yok,yok,yok,yok,var,yok,yok,var,yok,yok,yok,yok,kademe_6,normal,kotu,bilinmiyor,200_300_m2,5_oda,yuksek_8_15_kat,2_banyo,dusuk,dusuk,yok,dusuk,orta,yuksek,yok,5_7_Bucuk_Milyon_TL_Arasi
Agri,Merkez,Satilik,1_5_arasi,Yuksek_Giris,Kombi_Dogalgaz,bilinmiyor,yok,yok,yok,yok,yok,yok,yok,yok,var,yok,var,yok,yok,var,yok,yok,yok,yok,yok,yok,yok,yok,yok,yok,yok,var,yok,yok,yok,yok,kademe_6,iyi,normal,kotu,100_125_m2,3_oda,orta_4_7_kat,1_banyo,yok,yok,yok,dusuk,yok,yuksek,yok,2_3_Milyon_TL_Arasi
Mardin,Artuklu,Satilik,6_10_arasi,4,Kombi,bilinmiyor,yok,var,yok,var,yok,yok,var,yok,var,yok,var,var,yok,yok,yok,yok,yok,yok,yok,yok,yok,yok,var,yok,yok,var,yok,yok,yok,yok,kademe_6,normal,kotu,bilinmiyor,150_200_m2,4_oda,yuksek_8_15_kat,2_banyo,yok,yok,dusuk,orta,dusuk,yuksek,yok,3_4_Milyon_TL_Arasi
Gumushane,Siran,Satilik,1_5_arasi,2,Kombi,bilinmiyor,yok,var,var,yok,yok,var,yok,yok,var,yok,var,yok,yok,var,yok,yok,yok,yok,yok,yok,yok,var,yok,yok,yok,var,yok,yok,yok,yok,kademe_6,bilinmiyor,bilinmiyor,normal,125_150_m2,4_oda,orta_4_7_kat,2_banyo,yok,yok,dusuk,dusuk,yuksek,yuksek,yok,3_4_Milyon_TL_Arasi
Van,Tusba,Satilik,11_15_arasi,Zemin,Kombi,bilinmiyor,yok,yok,yok,yok,yok,yok,yok,yok,yok,yok,yok,yok,yok,yok,yok,yok,yok,yok,yok,yok,yok,yok,yok,yok,yok,yok,yok,yok,yok,yok,kademe_6,bilinmiyor,bilinmiyor,bilinmiyor,100_125_m2,4_oda,yuksek_8_15_kat,1_banyo,yok,yok,yok,dusuk,yok,yok,yok,2_3_Milyon_TL_Arasi
Mardin,Artuklu,Satilik,11_15_arasi,9,Kombi,bilinmiyor,yok,var,yok,var,yok,yok,var,yok,var,yok,var,var,yok,var,yok,yok,yok,yok,yok,yok,yok,yok,var,yok,yok,var,yok,yok,yok,yok,kademe_6,normal,kotu,normal,150_200_m2,4_oda,yuksek_8_15_kat,2_banyo,dusuk,yok,yok,dusuk,orta,yuksek,yok,3_4_Milyon_TL_Arasi
Van,Ercis,Satilik,1_5_arasi,Ara_Kat,Kombi_Dogalgaz,bilinmiyor,yok,yok,yok,yok,yok,var,yok,yok,yok,yok,yok,yok,yok,yok,yok,yok,yok,yok,yok,yok,yok,yok,yok,yok,yok,yok,yok,yok,yok,yok,kademe_6,kotu,normal,bilinmiyor,50_75_m2,2_oda,orta_4_7_kat,1_banyo,yok,yok,yok,dusuk,yok,yok,yok,1_5_2_Milyon_TL_Arasi
Batman,Merkez,Satilik,6_10_arasi,Zemin,Kombi_Dogalgaz,bilinmiyor,yok,yok,yok,yok,yok,var,var,var,var,yok,yok,yok,yok,yok,yok,yok,yok,yok,yok,yok,yok,yok,yok,yok,yok,yok,yok,yok,yok,yok,kademe_6,normal,normal,bilinmiyor,150_200_m2,4_oda,yuksek_8_15_kat,1_banyo,yok,yok,yok,dusuk,yok,yok,yok,1_5_2_Milyon_TL_Arasi
Kars,Merkez,Satilik,11_15_arasi,Yuksek_Giris,Kombi,bilinmiyor,yok,var,var,var,yok,var,yok,yok,var,yok,var,yok,yok,yok,yok,yok,yok,yok,yok,yok,yok,yok,var,yok,yok,var,yok,yok,yok,yok,kademe_6,normal,normal,bilinmiyor,75_100_m2,3_oda,orta_4_7_kat,1_banyo,dusuk,yok,yok,orta,orta,orta,yok,1_5_2_Milyon_TL_Arasi
Van,Ipekyolu,Satilik,0,2,Kombi,bilinmiyor,yok,var,yok,yok,yok,yok,var,yok,yok,yok,var,yok,yok,var,yok,yok,yok,yok,yok,yok,yok,yok,yok,yok,yok,yok,yok,yok,yok,yok,kademe_6,iyi,bilinmiyor,bilinmiyor,50_75_m2,2_oda,orta_4_7_kat,1_banyo,dusuk,yok,yok,dusuk,yuksek,orta,yok,2_3_Milyon_TL_Arasi
Van,Ipekyolu,Satilik,6_10_arasi,4,Kombi,bilinmiyor,yok,var,var,yok,yok,yok,yok,var,yok,yok,var,yok,yok,var,yok,yok,yok,yok,yok,yok,yok,yok,yok,yok,yok,yok,yok,yok,yok,yok,kademe_6,normal,normal,bilinmiyor,150_200_m2,4_oda,orta_4_7_kat,1_banyo,dusuk,dusuk,dusuk,orta,orta,yuksek,yok,4_5_Milyon_TL_Arasi
Van,Ipekyolu,Satilik,11_15_arasi,Bodrum,Kombi,bilinmiyor,yok,var,var,var,yok,yok,var,var,yok,yok,yok,yok,yok,yok,yok,yok,yok,yok,yok,yok,yok,yok,var,yok,yok,yok,yok,yok,yok,yok,kademe_6,bilinmiyor,normal,kotu,150_200_m2,4_oda,yuksek_8_15_kat,1_banyo,dusuk,yok,yok,orta,yuksek,yuksek,yok,2_3_Milyon_TL_Arasi
Diyarbakir,Kayapinar,Satilik,16_20_arasi,2,Kombi_Dogalgaz,bilinmiyor,yok,var,var,var,yok,var,var,var,var,yok,yok,var,yok,yok,yok,yok,yok,var,yok,yok,yok,yok,yok,yok,yok,var,yok,yok,yok,yok,kademe_6,normal,normal,normal,150_200_m2,4_oda,yuksek_8_15_kat,1_banyo,dusuk,yok,dusuk,dusuk,yok,yuksek,yok,3_4_Milyon_TL_Arasi
Adiyaman,Merkez,Satilik,6_10_arasi,Bodrum,Kombi,bilinmiyor,yok,var,yok,var,yok,var,yok,var,yok,yok,var,yok,yok,yok,yok,yok,yok,yok,yok,yok,yok,yok,yok,yok,yok,var,yok,yok,yok,yok,kademe_6,normal,normal,normal,150_200_m2,4_oda,orta_4_7_kat,1_banyo,yok,yok,dusuk,dusuk,yuksek,dusuk,yok,1_5_2_Milyon_TL_Arasi
Mardin,Kiziltepe,Satilik,6_10_arasi,1,bilinmiyor,bilinmiyor,yok,var,var,yok,yok,yok,yok,yok,yok,yok,yok,yok,yok,yok,yok,yok,yok,yok,yok,yok,yok,yok,yok,yok,yok,yok,yok,yok,yok,yok,kademe_6,bilinmiyor,bilinmiyor,bilinmiyor,125_150_m2,4_oda,alcak_1_3_kat,1_banyo,yok,yok,yok,dusuk,yok,yok,yok,2_3_Milyon_TL_Arasi
Kars,Merkez,Satilik,0,En_Ust_Kat,Kombi_Dogalgaz,bilinmiyor,yok,var,yok,var,yok,var,yok,var,yok,yok,yok,yok,yok,yok,yok,yok,yok,yok,yok,yok,yok,yok,yok,yok,yok,yok,yok,yok,yok,yok,kademe_6,iyi,iyi,bilinmiyor,150_200_m2,5_oda,orta_4_7_kat,2_banyo,yok,yok,yok,dusuk,yok,yok,yok,5_7_Bucuk_Milyon_TL_Arasi
Van,Ipekyolu,Satilik,6_10_arasi,3,Kombi,bilinmiyor,yok,var,var,yok,var,yok,yok,yok,yok,yok,yok,yok,yok,yok,yok,yok,yok,yok,yok,yok,yok,yok,yok,yok,yok,yok,yok,yok,yok,yok,kademe_6,kotu,normal,bilinmiyor,0_50_m2,2_oda,orta_4_7_kat,1_banyo,yok,yok,yok,dusuk,yok,yok,yok,1_5_2_Milyon_TL_Arasi
Van,Ipekyolu,Satilik,11_15_arasi,1,Kombi,bilinmiyor,yok,var,var,var,yok,yok,var,var,yok,yok,yok,yok,yok,yok,yok,yok,yok,yok,yok,yok,yok,yok,yok,yok,yok,yok,yok,yok,yok,yok,kademe_6,normal,iyi,bilinmiyor,150_200_m2,4_oda,orta_4_7_kat,1_banyo,yok,yok,yok,dusuk,dusuk,yok,yok,3_4_Milyon_TL_Arasi
Mardin,Artuklu,Satilik,6_10_arasi,3,Kombi,bilinmiyor,yok,var,var,var,yok,yok,yok,yok,yok,yok,var,yok,yok,yok,yok,yok,yok,yok,yok,yok,yok,yok,var,yok,yok,yok,yok,yok,yok,yok,kademe_6,normal,iyi,kotu,150_200_m2,4_oda,yuksek_8_15_kat,1_banyo,dusuk,yok,yok,dusuk,orta,yuksek,yok,3_4_Milyon_TL_Arasi
Mardin,Artuklu,Satilik,11_15_arasi,6,Kombi,bilinmiyor,yok,var,var,var,yok,yok,yok,yok,yok,yok,yok,yok,yok,yok,yok,yok,yok,yok,yok,yok,yok,yok,var,yok,yok,var,yok,yok,yok,yok,kademe_6,normal,kotu,bilinmiyor,150_200_m2,4_oda,orta_4_7_kat,1_banyo,yok,yok,yok,dusuk,orta,yok,yok,2_3_Milyon_TL_Arasi
Van,Ipekyolu,Satilik,1_5_arasi,6,Kombi_Dogalgaz,bilinmiyor,yok,var,yok,var,yok,yok,yok,yok,yok,yok,yok,yok,yok,yok,yok,yok,yok,yok,yok,yok,yok,yok,yok,yok,yok,yok,yok,yok,yok,yok,kademe_6,iyi,bilinmiyor,bilinmiyor,100_125_m2,3_oda,orta_4_7_kat,1_banyo,yok,yok,yok,dusuk,yok,yok,yok,2_3_Milyon_TL_Arasi
Batman,Merkez,Satilik,6_10_arasi,En_Ust_Kat,Kombi_Dogalgaz,bilinmiyor,yok,yok,yok,yok,yok,yok,yok,var,yok,yok,yok,yok,yok,yok,yok,yok,yok,yok,yok,yok,yok,yok,yok,yok,yok,yok,yok,yok,yok,yok,kademe_6,normal,normal,kotu,125_150_m2,3_oda,orta_4_7_kat,1_banyo,yok,yok,yok,dusuk,yok,yok,yok,1_5_2_Milyon_TL_Arasi
Diyarbakir,Kayapinar,Satilik,0,3,Merkezi,bilinmiyor,yok,var,var,var,yok,yok,yok,yok,yok,yok,yok,yok,yok,yok,yok,yok,yok,yok,yok,yok,yok,yok,yok,yok,yok,yok,yok,yok,yok,yok,kademe_6,iyi,normal,kotu,75_100_m2,3_oda,orta_4_7_kat,1_banyo,yok,yok,yok,dusuk,yok,yok,yok,3_4_Milyon_TL_Arasi
Batman,Merkez,Satilik,1_5_arasi,8,Kombi,bilinmiyor,yok,var,var,var,yok,yok,yok,yok,yok,yok,yok,yok,yok,yok,yok,yok,yok,yok,yok,yok,yok,yok,yok,yok,yok,yok,yok,yok,yok,yok,kademe_6,normal,iyi,kotu,200_300_m2,6_oda,yuksek_8_15_kat,3_banyo_ve_ustu,yok,yok,yok,dusuk,yok,yok,yok,5_7_Bucuk_Milyon_TL_Arasi
Van,Ipekyolu,Satilik,0,5,Yerden_Isitma,bilinmiyor,yok,var,var,var,yok,var,var,var,yok,yok,yok,yok,yok,yok,yok,yok,yok,yok,yok,yok,yok,yok,var,yok,yok,var,yok,yok,yok,yok,kademe_6,normal,normal,bilinmiyor,50_75_m2,2_oda,yuksek_8_15_kat,1_banyo,yok,yok,yok,dusuk,orta,dusuk,yok,1_5_2_Milyon_TL_Arasi
Diyarbakir,Kayapinar,Satilik,6_10_arasi,9,Merkezi,bilinmiyor,yok,var,var,var,yok,var,yok,var,var,yok,var,var,yok,yok,yok,yok,yok,yok,var,yok,yok,yok,var,yok,yok,var,yok,yok,yok,yok,kademe_6,iyi,iyi,bilinmiyor,200_300_m2,5_oda,yuksek_8_15_kat,2_banyo,dusuk,dusuk,dusuk,orta,yuksek,yuksek,yok,7_Bucuk_10_Milyon_TL_Arasi
Van,Tusba,Satilik,0,Bahce,Yerden_Isitma,bilinmiyor,yok,var,yok,var,yok,yok,yok,yok,yok,yok,yok,yok,yok,yok,yok,yok,yok,yok,yok,yok,yok,yok,yok,yok,yok,var,yok,yok,yok,yok,kademe_6,iyi,iyi,bilinmiyor,200_300_m2,5_oda,alcak_1_3_kat,3_banyo_ve_ustu,yok,yok,yok,dusuk,yok,dusuk,yok,10_Milyon_TL_Ustu
Van,Ipekyolu,Satilik,6_10_arasi,2,Merkezi,bilinmiyor,yok,yok,yok,yok,yok,yok,yok,yok,yok,yok,yok,yok,yok,yok,yok,yok,yok,yok,yok,yok,yok,yok,yok,yok,yok,yok,yok,yok,yok,yok,kademe_6,normal,bilinmiyor,normal,100_125_m2,3_oda,orta_4_7_kat,2_banyo,yok,yok,yok,dusuk,yok,yok,yok,3_4_Milyon_TL_Arasi
Mardin,Artuklu,Satilik,0,13,Kombi,bilinmiyor,yok,var,yok,var,yok,yok,var,yok,yok,yok,var,yok,yok,var,yok,yok,yok,yok,yok,yok,yok,yok,var,yok,yok,yok,yok,yok,yok,yok,kademe_6,bilinmiyor,normal,kotu,150_200_m2,4_oda,yuksek_8_15_kat,1_banyo,yok,dusuk,yok,dusuk,dusuk,yuksek,yok,3_4_Milyon_TL_Arasi
Agri,Dogubayazit,Satilik,6_10_arasi,4,Kombi,bilinmiyor,yok,var,var,var,yok,yok,yok,yok,yok,yok,yok,yok,yok,yok,yok,yok,yok,yok,yok,yok,yok,yok,yok,yok,yok,yok,yok,yok,yok,yok,kademe_6,bilinmiyor,kotu,bilinmiyor,150_200_m2,4_oda,orta_4_7_kat,2_banyo,yok,yok,yok,dusuk,yok,yok,yok,2_3_Milyon_TL_Arasi
Diyarbakir,Kayapinar,Satilik,0,2,Kombi,bilinmiyor,yok,var,yok,var,yok,yok,yok,yok,yok,yok,yok,yok,yok,yok,yok,yok,yok,yok,yok,yok,yok,yok,yok,yok,yok,yok,yok,yok,yok,yok,kademe_6,iyi,normal,normal,100_125_m2,3_oda,orta_4_7_kat,1_banyo,yok,yok,yok,dusuk,yok,yok,yok,3_4_Milyon_TL_Arasi
Bitlis,Tatvan,Satilik,6_10_arasi,5,Kombi_Dogalgaz,bilinmiyor,yok,var,var,yok,var,yok,yok,var,yok,yok,yok,yok,yok,yok,yok,yok,yok,yok,yok,yok,yok,yok,yok,var,yok,yok,yok,yok,yok,yok,kademe_6,kotu,kotu,kotu,100_125_m2,3_oda,yuksek_8_15_kat,1_banyo,yok,yok,yok,orta,orta,yuksek,yok,3_4_Milyon_TL_Arasi
Adiyaman,Kahta,Satilik,1_5_arasi,1,Kombi,bilinmiyor,yok,yok,yok,yok,yok,yok,yok,yok,yok,yok,yok,yok,yok,yok,yok,yok,yok,yok,yok,yok,yok,yok,yok,yok,yok,yok,yok,yok,yok,yok,kademe_6,kotu,normal,bilinmiyor,50_75_m2,2_oda,orta_4_7_kat,1_banyo,yok,yok,yok,dusuk,yok,yok,yok,1_5_2_Milyon_TL_Arasi
Batman,Merkez,Satilik,0,Zemin,Kombi,bilinmiyor,yok,var,yok,var,yok,yok,yok,yok,yok,yok,yok,yok,yok,yok,yok,yok,yok,yok,yok,yok,yok,yok,yok,yok,yok,yok,yok,yok,yok,yok,kademe_6,iyi,kotu,bilinmiyor,75_100_m2,2_oda,orta_4_7_kat,1_banyo,yok,yok,yok,dusuk,yok,yok,yok,1_5_Milyon_TL_Alti
Adiyaman,Merkez,Satilik,16_20_arasi,bilinmiyor,Kombi_Dogalgaz,bilinmiyor,yok,yok,yok,var,yok,yok,yok,yok,yok,yok,yok,yok,yok,yok,yok,yok,yok,yok,yok,yok,yok,yok,yok,yok,yok,yok,yok,yok,yok,yok,kademe_6,bilinmiyor,kotu,bilinmiyor,300_m2_ve_ustu,4_oda,alcak_1_3_kat,1_banyo,yok,yok,yok,dusuk,dusuk,yok,yok,5_7_Bucuk_Milyon_TL_Arasi
Van,Ipekyolu,Satilik,16_20_arasi,3,Kombi,bilinmiyor,yok,var,var,yok,yok,yok,var,var,yok,yok,var,yok,yok,yok,yok,yok,yok,yok,yok,yok,yok,yok,var,yok,yok,yok,yok,yok,yok,yok,kademe_6,normal,normal,normal,150_200_m2,4_oda,orta_4_7_kat,1_banyo,yok,yok,yok,orta,yok,dusuk,yok,3_4_Milyon_TL_Arasi
Diyarbakir,Ergani,Satilik,16_20_arasi,Zemin,Kombi,bilinmiyor,yok,yok,yok,yok,yok,yok,yok,yok,yok,yok,yok,yok,yok,yok,yok,yok,yok,yok,yok,yok,yok,yok,yok,yok,yok,yok,yok,yok,yok,yok,kademe_6,normal,bilinmiyor,bilinmiyor,125_150_m2,4_oda,orta_4_7_kat,1_banyo,yok,yok,yok,dusuk,yok,yok,yok,1_5_2_Milyon_TL_Arasi
Adiyaman,Merkez,Satilik,0,Zemin,Kombi,bilinmiyor,yok,var,yok,var,yok,var,var,yok,var,yok,yok,yok,yok,yok,yok,yok,yok,yok,yok,yok,yok,yok,yok,yok,yok,yok,yok,yok,yok,yok,kademe_6,kotu,kotu,bilinmiyor,125_150_m2,4_oda,orta_4_7_kat,1_banyo,yok,yok,yok,yok,yok,yok,yok,3_4_Milyon_TL_Arasi
Mardin,Artuklu,Satilik,0,3,Yerden_Isitma,bilinmiyor,yok,var,var,var,yok,yok,var,var,var,yok,var,var,yok,yok,yok,yok,yok,yok,yok,yok,yok,yok,var,yok,yok,var,yok,yok,yok,yok,kademe_6,iyi,iyi,bilinmiyor,300_m2_ve_ustu,6_oda,yuksek_8_15_kat,3_banyo_ve_ustu,dusuk,dusuk,yok,dusuk,orta,yuksek,yok,5_7_Bucuk_Milyon_TL_Arasi
Mardin,Artuklu,Satilik,0,2,Kombi,bilinmiyor,yok,var,var,var,yok,var,yok,yok,yok,yok,yok,yok,yok,yok,yok,yok,yok,yok,yok,yok,yok,yok,yok,yok,yok,var,yok,yok,yok,yok,kademe_6,iyi,bilinmiyor,bilinmiyor,100_125_m2,3_oda,yuksek_8_15_kat,1_banyo,yok,yok,dusuk,orta,yuksek,orta,yok,2_3_Milyon_TL_Arasi
Batman,Merkez,Satilik,6_10_arasi,Ara_Kat,Kombi_Dogalgaz,bilinmiyor,yok,var,var,var,yok,yok,yok,yok,yok,yok,var,var,yok,yok,yok,yok,yok,yok,yok,yok,yok,yok,yok,yok,yok,var,yok,yok,yok,yok,kademe_6,normal,bilinmiyor,normal,150_200_m2,4_oda,orta_4_7_kat,2_banyo,orta,dusuk,dusuk,dusuk,yok,yuksek,yok,4_5_Milyon_TL_Arasi
Van,Ipekyolu,Satilik,11_15_arasi,6,Kombi_Dogalgaz,bilinmiyor,yok,var,var,var,yok,yok,var,var,var,yok,var,var,yok,yok,yok,yok,yok,yok,yok,yok,yok,yok,var,var,yok,var,yok,yok,yok,yok,kademe_6,bilinmiyor,bilinmiyor,kotu,200_300_m2,5_oda,yuksek_8_15_kat,2_banyo,orta,yok,dusuk,dusuk,orta,yuksek,yok,5_7_Bucuk_Milyon_TL_Arasi
Batman,Merkez,Satilik,11_15_arasi,2,Kombi,bilinmiyor,yok,var,var,var,yok,var,var,var,var,yok,yok,yok,yok,var,yok,yok,yok,yok,yok,yok,yok,yok,var,yok,yok,var,yok,yok,yok,yok,kademe_6,bilinmiyor,iyi,bilinmiyor,150_200_m2,4_oda,orta_4_7_kat,1_banyo,yok,yok,yok,dusuk,orta,orta,yok,3_4_Milyon_TL_Arasi
Batman,Merkez,Satilik,0,9,Kombi_Dogalgaz,bilinmiyor,yok,var,var,yok,yok,var,yok,yok,var,yok,var,var,yok,yok,yok,yok,yok,yok,yok,yok,yok,yok,yok,yok,yok,yok,yok,yok,yok,yok,kademe_6,iyi,normal,bilinmiyor,100_125_m2,3_oda,yuksek_8_15_kat,2_banyo,yok,yok,yok,dusuk,yok,orta,yok,2_3_Milyon_TL_Arasi
Van,Tusba,Satilik,1_5_arasi,Bahce,Kat_Kaloriferi,bilinmiyor,yok,yok,yok,var,yok,yok,yok,yok,yok,yok,yok,yok,yok,yok,yok,yok,yok,yok,yok,yok,yok,yok,yok,yok,yok,yok,yok,yok,yok,yok,kademe_6,bilinmiyor,bilinmiyor,bilinmiyor,200_300_m2,5_oda,alcak_1_3_kat,2_banyo,yok,yok,yok,dusuk,yok,yok,yok,10_Milyon_TL_Ustu
Van,Edremit,Satilik,0,3,Yerden_Isitma,bilinmiyor,yok,var,yok,var,yok,yok,var,var,yok,yok,var,var,yok,yok,yok,yok,yok,yok,var,yok,yok,yok,yok,yok,yok,var,yok,yok,yok,yok,kademe_6,kotu,iyi,bilinmiyor,150_200_m2,4_oda,yuksek_8_15_kat,2_banyo,dusuk,dusuk,dusuk,orta,yuksek,orta,yok,7_Bucuk_10_Milyon_TL_Arasi
Gumushane,Merkez,Satilik,6_10_arasi,1,bilinmiyor,bilinmiyor,yok,var,yok,var,yok,yok,yok,yok,yok,yok,yok,yok,yok,yok,yok,yok,yok,yok,yok,yok,yok,yok,yok,yok,yok,yok,yok,yok,yok,yok,kademe_6,bilinmiyor,bilinmiyor,bilinmiyor,125_150_m2,4_oda,alcak_1_3_kat,2_banyo,yok,yok,yok,dusuk,yok,yok,yok,4_5_Milyon_TL_Arasi
Van,Tusba,Satilik,0,Bahce,Kat_Kaloriferi,bilinmiyor,yok,yok,yok,var,yok,var,var,var,var,yok,yok,yok,yok,yok,yok,yok,yok,yok,yok,yok,yok,yok,var,var,yok,yok,var,yok,yok,yok,kademe_6,bilinmiyor,bilinmiyor,bilinmiyor,200_300_m2,5_oda,alcak_1_3_kat,3_banyo_ve_ustu,yok,yok,yok,dusuk,dusuk,yok,yok,5_7_Bucuk_Milyon_TL_Arasi
Kars,Merkez,Satilik,0,Yuksek_Giris,Kombi_Dogalgaz,bilinmiyor,yok,var,yok,yok,yok,yok,var,yok,yok,yok,yok,yok,yok,yok,yok,yok,yok,yok,yok,yok,yok,yok,yok,yok,yok,yok,yok,yok,yok,yok,kademe_6,iyi,bilinmiyor,kotu,125_150_m2,4_oda,orta_4_7_kat,1_banyo,yok,yok,yok,dusuk,yok,yok,yok,3_4_Milyon_TL_Arasi
Mardin,Midyat,Satilik,0,Ara_Kat,Kombi_Dogalgaz,bilinmiyor,yok,var,var,var,yok,yok,var,var,yok,yok,var,yok,yok,var,yok,yok,yok,var,yok,yok,yok,yok,yok,yok,yok,var,yok,yok,yok,yok,kademe_6,normal,normal,kotu,100_125_m2,3_oda,orta_4_7_kat,1_banyo,yok,yok,yok,orta,orta,yuksek,yok,3_4_Milyon_TL_Arasi
Adiyaman,Merkez,Satilik,0,5,Kombi,bilinmiyor,yok,var,yok,var,yok,var,var,yok,var,yok,yok,yok,yok,yok,yok,yok,yok,yok,yok,yok,yok,yok,yok,yok,yok,yok,yok,yok,yok,yok,kademe_6,kotu,normal,iyi,150_200_m2,4_oda,orta_4_7_kat,1_banyo,yok,yok,yok,yok,yok,yok,yok,5_7_Bucuk_Milyon_TL_Arasi
Batman,Merkez,Satilik,11_15_arasi,3,Kombi_Dogalgaz,bilinmiyor,yok,yok,yok,yok,yok,yok,yok,yok,yok,yok,yok,yok,yok,yok,yok,yok,yok,yok,yok,yok,yok,yok,yok,yok,yok,yok,yok,yok,yok,yok,kademe_6,normal,kotu,kotu,125_150_m2,4_oda,orta_4_7_kat,1_banyo,yok,yok,yok,dusuk,yok,yok,yok,2_3_Milyon_TL_Arasi
Diyarbakir,Kayapinar,Satilik,6_10_arasi,Yuksek_Giris,Merkezi,bilinmiyor,yok,yok,yok,var,yok,yok,yok,yok,yok,yok,yok,yok,yok,yok,yok,yok,yok,yok,yok,yok,yok,yok,yok,yok,yok,yok,yok,yok,yok,yok,kademe_6,iyi,iyi,iyi,150_200_m2,4_oda,yuksek_8_15_kat,1_banyo,yok,yok,yok,dusuk,dusuk,yok,yok,4_5_Milyon_TL_Arasi
Van,Ipekyolu,Satilik,11_15_arasi,5,Kombi_Dogalgaz,bilinmiyor,yok,var,var,var,yok,yok,var,var,yok,yok,var,yok,yok,var,yok,yok,yok,yok,yok,yok,yok,yok,var,var,yok,var,yok,yok,yok,yok,kademe_6,normal,normal,bilinmiyor,125_150_m2,4_oda,orta_4_7_kat,2_banyo,orta,dusuk,yok,orta,orta,yuksek,yok,4_5_Milyon_TL_Arasi
Diyarbakir,Yenisehir,Satilik,26_30_arasi,5,Kombi_Dogalgaz,bilinmiyor,yok,yok,yok,yok,yok,yok,yok,yok,yok,yok,yok,yok,yok,yok,yok,yok,yok,yok,yok,yok,yok,yok,yok,yok,yok,yok,yok,yok,yok,yok,kademe_6,normal,normal,bilinmiyor,125_150_m2,4_oda,yuksek_8_15_kat,1_banyo,yok,yok,yok,dusuk,yok,yok,yok,2_3_Milyon_TL_Arasi
Van,Edremit,Satilik,1_5_arasi,Yuksek_Giris,Kombi,bilinmiyor,yok,yok,yok,var,yok,yok,var,yok,var,yok,var,yok,yok,yok,yok,yok,yok,yok,yok,yok,yok,yok,var,yok,yok,var,yok,yok,yok,yok,kademe_6,iyi,bilinmiyor,iyi,75_100_m2,3_oda,orta_4_7_kat,1_banyo,yok,yok,yok,yok,dusuk,dusuk,yok,3_4_Milyon_TL_Arasi
Van,Edremit,Satilik,11_15_arasi,2,Kombi,bilinmiyor,yok,var,var,var,yok,yok,var,yok,yok,yok,yok,yok,yok,yok,yok,yok,yok,yok,yok,yok,yok,yok,yok,yok,yok,yok,yok,yok,yok,yok,kademe_6,normal,iyi,bilinmiyor,100_125_m2,4_oda,orta_4_7_kat,1_banyo,yok,yok,yok,dusuk,dusuk,yok,yok,2_3_Milyon_TL_Arasi
Van,Edremit,Satilik,6_10_arasi,Bahce,Kombi,bilinmiyor,yok,var,yok,yok,yok,var,var,var,var,yok,var,yok,yok,yok,yok,yok,yok,yok,yok,yok,yok,yok,var,yok,yok,var,yok,var,yok,yok,kademe_6,normal,normal,kotu,150_200_m2,4_oda,bilinmiyor,2_banyo,dusuk,dusuk,yok,orta,yuksek,yuksek,yok,7_Bucuk_10_Milyon_TL_Arasi
Adiyaman,Merkez,Satilik,1_5_arasi,5,Kombi,bilinmiyor,yok,var,yok,var,yok,yok,yok,var,var,yok,var,yok,yok,yok,yok,yok,yok,yok,yok,yok,yok,yok,yok,yok,yok,var,yok,yok,yok,yok,kademe_6,iyi,normal,bilinmiyor,125_150_m2,4_oda,yuksek_8_15_kat,1_banyo,yok,yok,dusuk,orta,yuksek,yuksek,yok,2_3_Milyon_TL_Arasi
Van,Edremit,Satilik,11_15_arasi,2,Kombi,bilinmiyor,yok,var,yok,var,yok,var,yok,var,yok,yok,yok,yok,yok,yok,yok,yok,yok,yok,yok,yok,yok,yok,yok,yok,yok,yok,yok,yok,yok,yok,kademe_6,normal,normal,kotu,100_125_m2,4_oda,orta_4_7_kat,1_banyo,yok,yok,yok,dusuk,yok,yok,yok,2_3_Milyon_TL_Arasi
Diyarbakir,Kayapinar,Satilik,16_20_arasi,1,bilinmiyor,bilinmiyor,yok,var,yok,var,yok,yok,yok,yok,yok,yok,yok,yok,yok,yok,yok,yok,yok,yok,yok,yok,yok,yok,yok,yok,yok,yok,yok,yok,yok,yok,kademe_6,bilinmiyor,bilinmiyor,bilinmiyor,150_200_m2,5_oda,alcak_1_3_kat,2_banyo,yok,yok,yok,dusuk,yok,yok,yok,5_7_Bucuk_Milyon_TL_Arasi
Adiyaman,Merkez,Satilik,16_20_arasi,3,Kombi,bilinmiyor,yok,yok,yok,var,yok,yok,yok,yok,yok,yok,yok,yok,yok,yok,yok,yok,yok,yok,yok,yok,yok,yok,yok,yok,yok,yok,yok,yok,yok,yok,kademe_6,bilinmiyor,bilinmiyor,bilinmiyor,150_200_m2,4_oda,orta_4_7_kat,1_banyo,yok,yok,yok,dusuk,yok,yok,yok,2_3_Milyon_TL_Arasi
Mardin,Artuklu,Satilik,0,1,Kombi,bilinmiyor,yok,var,yok,var,yok,yok,var,var,var,yok,var,var,yok,yok,yok,yok,yok,yok,yok,yok,yok,yok,var,yok,yok,var,yok,yok,yok,yok,kademe_6,iyi,iyi,bilinmiyor,300_m2_ve_ustu,6_oda,yuksek_8_15_kat,3_banyo_ve_ustu,dusuk,dusuk,yok,dusuk,yok,yuksek,yok,5_7_Bucuk_Milyon_TL_Arasi
Van,Ipekyolu,Satilik,0,4,Yerden_Isitma,bilinmiyor,yok,var,yok,yok,yok,yok,yok,yok,yok,yok,yok,yok,yok,yok,yok,yok,yok,yok,yok,yok,yok,yok,yok,yok,yok,yok,yok,yok,yok,yok,kademe_6,iyi,bilinmiyor,kotu,50_75_m2,2_oda,orta_4_7_kat,1_banyo,yok,yok,yok,dusuk,yok,yok,yok,2_3_Milyon_TL_Arasi
Van,Ipekyolu,Satilik,11_15_arasi,3,Kombi,bilinmiyor,yok,yok,var,var,yok,var,yok,yok,yok,yok,yok,yok,yok,yok,yok,yok,yok,yok,yok,yok,yok,yok,yok,yok,yok,yok,yok,yok,yok,yok,kademe_6,normal,kotu,bilinmiyor,75_100_m2,3_oda,orta_4_7_kat,1_banyo,yok,yok,yok,dusuk,yok,dusuk,yok,2_3_Milyon_TL_Arasi
Batman,Merkez,Satilik,6_10_arasi,5,Kombi,bilinmiyor,yok,var,yok,var,yok,var,var,var,var,yok,var,var,yok,var,yok,yok,yok,yok,yok,yok,yok,yok,var,yok,yok,var,yok,yok,yok,yok,kademe_6,iyi,normal,kotu,150_200_m2,4_oda,orta_4_7_kat,2_banyo,yok,yok,dusuk,orta,yuksek,yuksek,yok,2_3_Milyon_TL_Arasi
Diyarbakir,Kayapinar,Satilik,1_5_arasi,Ara_Kat,Merkezi,bilinmiyor,yok,var,var,yok,yok,yok,yok,yok,yok,yok,yok,yok,yok,yok,yok,yok,yok,yok,yok,yok,yok,yok,yok,yok,yok,yok,yok,yok,yok,yok,kademe_6,iyi,normal,bilinmiyor,75_100_m2,3_oda,yuksek_8_15_kat,1_banyo,yok,yok,yok,dusuk,yok,yok,yok,4_5_Milyon_TL_Arasi
Mardin,Midyat,Satilik,0,Yuksek_Giris,Kombi_Dogalgaz,bilinmiyor,yok,var,var,var,yok,var,yok,var,var,yok,var,yok,yok,var,yok,yok,yok,yok,yok,yok,yok,yok,yok,yok,yok,var,yok,yok,yok,yok,kademe_6,normal,iyi,kotu,75_100_m2,3_oda,orta_4_7_kat,1_banyo,orta,yok,yok,orta,orta,yuksek,yok,2_3_Milyon_TL_Arasi
Mardin,Kiziltepe,Satilik,31_ve_uzeri,6,Kombi,bilinmiyor,yok,yok,yok,yok,yok,yok,yok,yok,yok,yok,yok,yok,yok,yok,yok,yok,yok,yok,yok,yok,yok,yok,yok,yok,yok,yok,yok,yok,yok,yok,kademe_6,bilinmiyor,bilinmiyor,bilinmiyor,125_150_m2,4_oda,yuksek_8_15_kat,1_banyo,yok,yok,yok,dusuk,yok,yok,yok,1_5_2_Milyon_TL_Arasi
Van,Ipekyolu,Satilik,6_10_arasi,1,Kombi_Dogalgaz,bilinmiyor,yok,var,var,var,yok,yok,var,var,yok,yok,yok,var,yok,var,yok,yok,yok,yok,yok,yok,yok,yok,yok,yok,yok,var,yok,yok,yok,yok,kademe_6,iyi,normal,bilinmiyor,150_200_m2,4_oda,yuksek_8_15_kat,2_banyo,orta,yok,yok,dusuk,orta,yuksek,yok,4_5_Milyon_TL_Arasi
Van,Ipekyolu,Satilik,1_5_arasi,Yuksek_Giris,Kombi,bilinmiyor,yok,var,var,var,yok,yok,var,var,yok,yok,var,var,yok,var,yok,yok,yok,yok,yok,yok,yok,yok,var,yok,yok,var,yok,yok,yok,yok,kademe_6,normal,bilinmiyor,normal,100_125_m2,4_oda,orta_4_7_kat,2_banyo,dusuk,dusuk,yok,orta,orta,yuksek,yok,4_5_Milyon_TL_Arasi
Mardin,Artuklu,Satilik,1_5_arasi,Yuksek_Giris,Kombi,bilinmiyor,yok,yok,yok,var,yok,var,yok,yok,yok,yok,var,yok,yok,var,yok,yok,yok,yok,yok,yok,yok,yok,var,yok,yok,var,yok,yok,yok,yok,kademe_6,iyi,normal,kotu,75_100_m2,3_oda,yuksek_8_15_kat,1_banyo,yok,yok,yok,dusuk,dusuk,yuksek,yok,1_5_2_Milyon_TL_Arasi
Van,Ercis,Satilik,11_15_arasi,Ara_Kat,Kombi_Dogalgaz,bilinmiyor,yok,yok,yok,yok,yok,yok,yok,var,yok,yok,yok,yok,yok,yok,yok,yok,yok,yok,yok,yok,yok,yok,yok,yok,yok,yok,yok,yok,yok,yok,kademe_6,bilinmiyor,bilinmiyor,bilinmiyor,100_125_m2,4_oda,orta_4_7_kat,1_banyo,yok,yok,yok,dusuk,yok,yok,yok,1_5_2_Milyon_TL_Arasi
Diyarbakir,Yenisehir,Satilik,6_10_arasi,13,Merkezi,bilinmiyor,yok,yok,yok,yok,yok,yok,yok,yok,yok,yok,yok,yok,yok,yok,yok,yok,yok,yok,yok,yok,yok,yok,yok,yok,yok,yok,yok,yok,yok,yok,kademe_6,bilinmiyor,bilinmiyor,bilinmiyor,150_200_m2,4_oda,cok_yuksek_16_ustu_kat,1_banyo,yok,yok,yok,dusuk,yok,yok,yok,3_4_Milyon_TL_Arasi
Mardin,Artuklu,Satilik,16_20_arasi,1,Kombi,bilinmiyor,yok,var,var,var,yok,yok,yok,yok,yok,yok,var,yok,yok,var,yok,yok,yok,yok,yok,yok,yok,yok,yok,yok,yok,var,yok,yok,yok,yok,kademe_6,bilinmiyor,iyi,bilinmiyor,150_200_m2,4_oda,orta_4_7_kat,1_banyo,dusuk,yok,yok,dusuk,yuksek,yuksek,yok,2_3_Milyon_TL_Arasi
Mardin,Artuklu,Satilik,6_10_arasi,6,Kombi,bilinmiyor,yok,var,var,var,yok,var,yok,yok,yok,yok,var,var,yok,yok,yok,yok,yok,yok,yok,yok,yok,yok,yok,yok,yok,var,yok,yok,yok,yok,kademe_6,normal,normal,bilinmiyor,150_200_m2,4_oda,cok_yuksek_16_ustu_kat,2_banyo,yok,dusuk,yok,dusuk,dusuk,orta,yok,2_3_Milyon_TL_Arasi
Ardahan,Merkez,Satilik,6_10_arasi,5,Kombi_Dogalgaz,bilinmiyor,yok,var,var,var,yok,var,yok,yok,var,yok,yok,yok,yok,yok,yok,yok,yok,yok,yok,yok,yok,yok,yok,yok,yok,yok,yok,yok,yok,yok,kademe_6,kotu,bilinmiyor,bilinmiyor,125_150_m2,4_oda,orta_4_7_kat,1_banyo,dusuk,yok,yok,yok,yok,orta,yok,3_4_Milyon_TL_Arasi
Adiyaman,Golbasi,Satilik,21_25_arasi,Bahce,Soba,bilinmiyor,yok,var,yok,yok,var,yok,yok,yok,yok,yok,yok,yok,yok,yok,yok,yok,yok,yok,yok,yok,yok,yok,var,yok,yok,yok,yok,yok,yok,yok,kademe_6,bilinmiyor,bilinmiyor,bilinmiyor,300_m2_ve_ustu,7_oda_ve_ustu,bilinmiyor,2_banyo,yok,yok,yok,dusuk,yok,yok,yok,4_5_Milyon_TL_Arasi
Batman,Merkez,Satilik,0,3,Kombi,bilinmiyor,yok,var,var,var,yok,yok,var,var,yok,yok,var,var,yok,yok,yok,yok,yok,yok,yok,yok,yok,yok,yok,yok,yok,var,yok,yok,yok,yok,kademe_6,iyi,iyi,normal,150_200_m2,4_oda,orta_4_7_kat,2_banyo,yok,yok,yok,dusuk,orta,yuksek,yok,4_5_Milyon_TL_Arasi
Van,Ipekyolu,Satilik,0,4,Yerden_Isitma,bilinmiyor,yok,var,var,var,yok,var,var,yok,var,yok,var,var,yok,var,yok,yok,yok,yok,yok,yok,yok,yok,yok,yok,yok,var,yok,yok,yok,yok,kademe_6,bilinmiyor,iyi,bilinmiyor,125_150_m2,4_oda,orta_4_7_kat,2_banyo,dusuk,yok,dusuk,orta,orta,orta,yok,4_5_Milyon_TL_Arasi
Mardin,Kiziltepe,Satilik,21_25_arasi,2,bilinmiyor,bilinmiyor,yok,var,var,var,yok,yok,yok,yok,yok,yok,yok,yok,yok,yok,yok,yok,yok,yok,yok,yok,yok,yok,yok,yok,yok,yok,yok,yok,yok,yok,kademe_6,bilinmiyor,bilinmiyor,bilinmiyor,200_300_m2,4_oda,orta_4_7_kat,1_banyo,yok,yok,yok,dusuk,yok,yok,yok,1_5_Milyon_TL_Alti
Mardin,Artuklu,Satilik,0,5,Kombi,bilinmiyor,yok,var,var,yok,yok,yok,yok,yok,yok,yok,yok,yok,yok,yok,yok,yok,yok,yok,yok,yok,yok,yok,yok,yok,yok,yok,yok,yok,yok,yok,kademe_6,normal,kotu,bilinmiyor,100_125_m2,3_oda,orta_4_7_kat,1_banyo,yok,yok,dusuk,yok,yok,yok,yok,2_3_Milyon_TL_Arasi
Van,Ipekyolu,Satilik,6_10_arasi,6,Kombi,bilinmiyor,yok,var,var,var,var,yok,yok,var,yok,yok,yok,yok,yok,yok,yok,yok,yok,yok,yok,yok,yok,yok,yok,yok,yok,yok,yok,yok,yok,yok,kademe_6,normal,normal,normal,75_100_m2,3_oda,orta_4_7_kat,1_banyo,yok,yok,yok,dusuk,yok,yok,yok,2_3_Milyon_TL_Arasi
Adiyaman,Merkez,Satilik,0,3,Kombi_Dogalgaz,bilinmiyor,yok,var,var,var,var,yok,yok,var,yok,yok,yok,yok,yok,yok,yok,yok,yok,yok,yok,yok,yok,yok,yok,yok,yok,yok,yok,yok,yok,yok,kademe_6,normal,normal,bilinmiyor,75_100_m2,4_oda,orta_4_7_kat,1_banyo,yok,yok,yok,dusuk,yok,yok,yok,2_3_Milyon_TL_Arasi
Diyarbakir,Sur,Satilik,1_5_arasi,bilinmiyor,Kombi_Dogalgaz,bilinmiyor,yok,yok,yok,yok,yok,yok,yok,var,yok,yok,yok,yok,yok,yok,yok,yok,yok,yok,yok,yok,yok,yok,yok,yok,yok,yok,var,yok,yok,yok,kademe_6,normal,normal,kotu,300_m2_ve_ustu,5_oda,alcak_1_3_kat,2_banyo,yok,yok,yok,dusuk,yok,yok,yok,10_Milyon_TL_Ustu
Van,Edremit,Satilik,0,3,Kombi,bilinmiyor,yok,var,var,var,yok,var,yok,yok,yok,yok,var,yok,yok,yok,yok,yok,yok,yok,yok,yok,yok,yok,yok,yok,yok,yok,yok,yok,yok,yok,kademe_6,iyi,iyi,iyi,100_125_m2,3_oda,orta_4_7_kat,1_banyo,yok,yok,yok,dusuk,yok,dusuk,yok,3_4_Milyon_TL_Arasi
Bitlis,Tatvan,Satilik,11_15_arasi,1,bilinmiyor,bilinmiyor,yok,var,yok,yok,yok,yok,yok,yok,yok,yok,yok,yok,yok,yok,yok,yok,yok,yok,yok,yok,yok,yok,yok,yok,yok,yok,yok,yok,yok,yok,kademe_6,bilinmiyor,bilinmiyor,bilinmiyor,200_300_m2,6_oda,alcak_1_3_kat,2_banyo,yok,yok,yok,dusuk,yok,yok,yok,5_7_Bucuk_Milyon_TL_Arasi
Adiyaman,Merkez,Satilik,0,4,Yerden_Isitma,bilinmiyor,yok,var,yok,var,var,yok,yok,yok,yok,yok,yok,yok,yok,yok,yok,yok,yok,yok,yok,yok,yok,yok,yok,yok,yok,yok,yok,yok,yok,yok,kademe_6,normal,bilinmiyor,iyi,50_75_m2,2_oda,orta_4_7_kat,1_banyo,yok,yok,yok,dusuk,yok,yok,yok,2_3_Milyon_TL_Arasi
Igdir,Merkez,Satilik,1_5_arasi,1,bilinmiyor,bilinmiyor,yok,var,yok,yok,yok,yok,yok,yok,yok,yok,yok,yok,yok,yok,yok,yok,yok,yok,yok,yok,yok,yok,yok,yok,yok,yok,yok,yok,yok,yok,kademe_6,bilinmiyor,bilinmiyor,bilinmiyor,125_150_m2,4_oda,alcak_1_3_kat,1_banyo,yok,yok,yok,dusuk,yok,yok,yok,4_5_Milyon_TL_Arasi
Batman,Merkez,Satilik,0,Bahce,Kombi,bilinmiyor,yok,var,yok,var,yok,yok,var,yok,yok,yok,yok,yok,yok,yok,yok,yok,yok,yok,yok,yok,yok,yok,yok,yok,yok,yok,yok,yok,yok,yok,kademe_6,iyi,iyi,normal,200_300_m2,6_oda,alcak_1_3_kat,3_banyo_ve_ustu,yok,yok,yok,dusuk,yok,yok,yok,10_Milyon_TL_Ustu
Van,Ipekyolu,Satilik,6_10_arasi,1,Kombi_Dogalgaz,bilinmiyor,yok,var,var,var,var,yok,yok,var,yok,yok,var,yok,yok,yok,yok,yok,yok,yok,yok,yok,yok,yok,yok,yok,yok,var,yok,yok,yok,yok,kademe_6,kotu,bilinmiyor,kotu,0_50_m2,2_oda,orta_4_7_kat,1_banyo,yok,yok,yok,dusuk,orta,orta,yok,1_5_2_Milyon_TL_Arasi
Van,Tusba,Satilik,6_10_arasi,bilinmiyor,Kombi,bilinmiyor,yok,yok,yok,yok,yok,yok,yok,yok,yok,yok,yok,yok,yok,yok,yok,yok,yok,yok,yok,yok,yok,yok,yok,yok,yok,yok,yok,yok,yok,yok,kademe_6,kotu,iyi,bilinmiyor,200_300_m2,4_oda,alcak_1_3_kat,1_banyo,yok,yok,yok,dusuk,yok,yok,yok,10_Milyon_TL_Ustu
Mardin,Nusaybin,Satilik,1_5_arasi,5,Kombi,bilinmiyor,yok,var,yok,var,yok,yok,yok,yok,yok,yok,yok,yok,yok,yok,yok,yok,yok,yok,yok,yok,yok,yok,yok,yok,yok,yok,yok,yok,yok,yok,kademe_6,iyi,bilinmiyor,iyi,75_100_m2,3_oda,orta_4_7_kat,1_banyo,yok,yok,yok,yok,yok,yok,yok,2_3_Milyon_TL_Arasi
Diyarbakir,Kayapinar,Satilik,11_15_arasi,1,bilinmiyor,bilinmiyor,yok,var,var,var,yok,yok,yok,yok,yok,yok,yok,yok,yok,yok,yok,yok,yok,yok,yok,yok,yok,yok,yok,yok,yok,yok,yok,yok,yok,yok,kademe_6,bilinmiyor,bilinmiyor,bilinmiyor,150_200_m2,5_oda,alcak_1_3_kat,2_banyo,yok,yok,yok,dusuk,yok,yok,yok,5_7_Bucuk_Milyon_TL_Arasi
Van,Ipekyolu,Satilik,6_10_arasi,3,Merkezi,bilinmiyor,yok,var,var,var,yok,var,var,var,yok,yok,var,yok,yok,yok,yok,yok,yok,yok,yok,yok,yok,yok,yok,yok,yok,var,yok,yok,yok,yok,kademe_6,bilinmiyor,bilinmiyor,bilinmiyor,100_125_m2,3_oda,orta_4_7_kat,1_banyo,yok,yok,yok,dusuk,orta,yuksek,yok,3_4_Milyon_TL_Arasi
Mardin,Artuklu,Satilik,1_5_arasi,18,Kombi,bilinmiyor,yok,var,var,var,yok,yok,yok,yok,yok,yok,yok,yok,yok,yok,yok,yok,yok,yok,yok,yok,yok,yok,yok,yok,yok,yok,yok,yok,yok,yok,kademe_6,iyi,bilinmiyor,kotu,150_200_m2,4_oda,cok_yuksek_16_ustu_kat,2_banyo,yok,yok,yok,yok,yok,yok,yok,3_4_Milyon_TL_Arasi
Mardin,Nusaybin,Satilik,6_10_arasi,3,Kat_Kaloriferi,bilinmiyor,yok,var,yok,var,yok,yok,var,var,yok,yok,yok,yok,yok,yok,yok,yok,yok,yok,yok,yok,yok,yok,yok,yok,yok,var,yok,yok,yok,yok,kademe_6,normal,bilinmiyor,kotu,125_150_m2,4_oda,orta_4_7_kat,2_banyo,yok,yok,yok,dusuk,yok,dusuk,yok,3_4_Milyon_TL_Arasi
Mardin,Artuklu,Satilik,6_10_arasi,5,Kombi,bilinmiyor,yok,var,yok,var,var,yok,yok,yok,yok,yok,var,yok,yok,var,yok,yok,yok,yok,yok,yok,yok,yok,yok,yok,yok,var,yok,yok,yok,yok,kademe_6,kotu,bilinmiyor,normal,50_75_m2,2_oda,yuksek_8_15_kat,1_banyo,dusuk,yok,dusuk,dusuk,yuksek,yuksek,yok,1_5_2_Milyon_TL_Arasi
Mardin,Artuklu,Satilik,26_30_arasi,Bahce,Soba,bilinmiyor,yok,yok,yok,yok,yok,var,var,var,var,yok,yok,yok,yok,yok,yok,yok,yok,yok,yok,yok,yok,yok,var,yok,yok,yok,yok,yok,yok,yok,kademe_6,bilinmiyor,bilinmiyor,bilinmiyor,200_300_m2,3_oda,bilinmiyor,1_banyo,yok,dusuk,yok,dusuk,dusuk,dusuk,yok,1_5_Milyon_TL_Alti
Mardin,Artuklu,Satilik,16_20_arasi,1,bilinmiyor,bilinmiyor,yok,var,yok,yok,yok,yok,yok,yok,yok,yok,yok,yok,yok,yok,yok,yok,yok,yok,yok,yok,yok,yok,yok,yok,yok,yok,yok,yok,yok,yok,kademe_6,kotu,kotu,bilinmiyor,125_150_m2,4_oda,alcak_1_3_kat,1_banyo,yok,yok,yok,dusuk,yok,yok,yok,2_3_Milyon_TL_Arasi
Mardin,Artuklu,Satilik,0,8,Yerden_Isitma,bilinmiyor,yok,var,yok,var,yok,var,var,yok,yok,yok,var,yok,yok,yok,yok,yok,yok,yok,yok,yok,yok,yok,var,yok,yok,var,yok,yok,yok,yok,kademe_6,iyi,normal,kotu,50_75_m2,2_oda,yuksek_8_15_kat,1_banyo,yok,yok,yok,dusuk,dusuk,dusuk,yok,1_5_Milyon_TL_Alti
Mardin,Artuklu,Satilik,1_5_arasi,2,Kombi,bilinmiyor,yok,var,var,var,yok,yok,yok,yok,var,yok,var,yok,yok,yok,yok,yok,yok,yok,yok,yok,yok,yok,var,yok,yok,yok,yok,yok,yok,yok,kademe_6,normal,normal,normal,150_200_m2,4_oda,yuksek_8_15_kat,1_banyo,dusuk,yok,dusuk,dusuk,yok,yuksek,yok,3_4_Milyon_TL_Arasi
Mardin,Artuklu,Satilik,6_10_arasi,9,Kombi,bilinmiyor,yok,var,var,var,yok,yok,yok,yok,yok,yok,var,var,yok,var,yok,yok,yok,yok,yok,yok,yok,yok,yok,yok,yok,var,yok,yok,yok,yok,kademe_6,normal,normal,bilinmiyor,150_200_m2,4_oda,yuksek_8_15_kat,2_banyo,dusuk,yok,yok,dusuk,yuksek,yuksek,yok,4_5_Milyon_TL_Arasi
Van,Ipekyolu,Satilik,0,3,Yerden_Isitma,bilinmiyor,yok,var,var,var,yok,yok,var,yok,var,yok,var,var,yok,var,yok,var,yok,yok,yok,yok,yok,yok,yok,yok,yok,yok,yok,yok,yok,yok,kademe_6,iyi,iyi,bilinmiyor,150_200_m2,4_oda,orta_4_7_kat,2_banyo,yok,yok,yok,yok,yuksek,yuksek,orta,5_7_Bucuk_Milyon_TL_Arasi
Mardin,Artuklu,Satilik,1_5_arasi,1,Kombi,bilinmiyor,yok,var,var,var,yok,yok,var,yok,yok,yok,var,yok,yok,var,yok,yok,yok,yok,yok,yok,yok,yok,var,yok,yok,yok,yok,yok,yok,yok,kademe_6,bilinmiyor,bilinmiyor,bilinmiyor,100_125_m2,3_oda,yuksek_8_15_kat,1_banyo,yok,yok,yok,dusuk,orta,yuksek,yok,1_5_2_Milyon_TL_Arasi
Adiyaman,Merkez,Satilik,0,Yuksek_Giris,Kombi,bilinmiyor,yok,var,yok,var,yok,yok,yok,yok,yok,yok,yok,yok,yok,yok,yok,yok,yok,yok,yok,yok,yok,yok,yok,yok,yok,yok,yok,yok,yok,yok,kademe_6,normal,normal,bilinmiyor,125_150_m2,4_oda,orta_4_7_kat,1_banyo,yok,yok,yok,dusuk,dusuk,yok,yok,4_5_Milyon_TL_Arasi
Van,Ipekyolu,Satilik,1_5_arasi,1,Kombi,bilinmiyor,yok,var,yok,var,yok,yok,var,yok,yok,yok,var,yok,yok,yok,yok,yok,yok,yok,yok,yok,yok,yok,yok,yok,yok,var,yok,yok,yok,yok,kademe_6,normal,normal,bilinmiyor,150_200_m2,4_oda,orta_4_7_kat,1_banyo,yok,yok,dusuk,dusuk,dusuk,orta,yok,5_7_Bucuk_Milyon_TL_Arasi
Van,Ipekyolu,Satilik,11_15_arasi,5,Kombi_Dogalgaz,bilinmiyor,yok,yok,yok,yok,yok,yok,yok,yok,yok,yok,yok,yok,yok,yok,yok,yok,yok,yok,yok,yok,yok,yok,yok,yok,yok,yok,yok,yok,yok,yok,kademe_6,normal,normal,bilinmiyor,150_200_m2,5_oda,yuksek_8_15_kat,1_banyo,yok,yok,yok,dusuk,yok,yok,yok,5_7_Bucuk_Milyon_TL_Arasi
Mardin,Artuklu,Satilik,1_5_arasi,3,Kombi,bilinmiyor,yok,var,var,var,yok,yok,var,var,yok,yok,var,var,yok,var,yok,yok,yok,yok,yok,yok,yok,yok,var,yok,yok,var,yok,yok,yok,yok,kademe_6,normal,normal,bilinmiyor,150_200_m2,4_oda,yuksek_8_15_kat,2_banyo,dusuk,dusuk,yok,dusuk,orta,yuksek,yok,3_4_Milyon_TL_Arasi
Batman,Merkez,Satilik,6_10_arasi,3,Kombi,bilinmiyor,yok,var,var,yok,yok,yok,var,var,yok,yok,yok,yok,yok,yok,yok,yok,yok,yok,yok,yok,yok,yok,yok,yok,yok,var,yok,yok,yok,yok,kademe_6,iyi,normal,kotu,150_200_m2,4_oda,orta_4_7_kat,1_banyo,yok,yok,dusuk,dusuk,yuksek,orta,yok,2_3_Milyon_TL_Arasi
Van,Ipekyolu,Satilik,6_10_arasi,4,Merkezi,bilinmiyor,yok,var,var,var,var,var,yok,yok,yok,yok,yok,yok,yok,yok,yok,yok,yok,yok,yok,yok,yok,yok,yok,yok,yok,yok,yok,yok,yok,yok,kademe_6,normal,bilinmiyor,kotu,50_75_m2,2_oda,orta_4_7_kat,1_banyo,yok,yok,yok,dusuk,yok,yok,yok,1_5_2_Milyon_TL_Arasi
Mardin,Artuklu,Satilik,0,2,Kombi,bilinmiyor,yok,var,var,yok,yok,yok,var,var,yok,yok,var,var,yok,yok,yok,yok,yok,yok,yok,yok,yok,yok,var,yok,yok,var,yok,yok,yok,yok,kademe_6,iyi,normal,bilinmiyor,150_200_m2,4_oda,yuksek_8_15_kat,1_banyo,dusuk,dusuk,dusuk,orta,dusuk,yuksek,yok,5_7_Bucuk_Milyon_TL_Arasi
Diyarbakir,Kayapinar,Satilik,11_15_arasi,En_Ust_Kat,Klima,bilinmiyor,yok,var,var,yok,yok,yok,yok,var,yok,yok,var,var,yok,yok,yok,yok,yok,var,yok,yok,yok,yok,yok,yok,yok,var,yok,yok,yok,yok,kademe_6,iyi,iyi,kotu,150_200_m2,4_oda,yuksek_8_15_kat,2_banyo,yok,yok,yok,orta,orta,yuksek,dusuk,3_4_Milyon_TL_Arasi
Diyarbakir,Kayapinar,Satilik,21_25_arasi,6,Kombi_Dogalgaz,bilinmiyor,yok,yok,yok,var,yok,yok,yok,yok,yok,yok,yok,yok,yok,yok,yok,yok,yok,yok,yok,yok,yok,yok,yok,yok,yok,yok,yok,yok,yok,yok,kademe_6,iyi,normal,bilinmiyor,150_200_m2,4_oda,yuksek_8_15_kat,2_banyo,yok,yok,yok,dusuk,yok,yok,yok,4_5_Milyon_TL_Arasi
Diyarbakir,Kayapinar,Satilik,0,6,Yerden_Isitma,bilinmiyor,yok,var,var,var,yok,yok,var,yok,yok,yok,yok,yok,yok,yok,yok,yok,yok,yok,yok,yok,yok,yok,yok,yok,yok,yok,yok,yok,yok,yok,kademe_6,bilinmiyor,bilinmiyor,bilinmiyor,75_100_m2,3_oda,yuksek_8_15_kat,1_banyo,yok,yok,yok,dusuk,yok,yok,yok,5_7_Bucuk_Milyon_TL_Arasi
Van,Edremit,Satilik,11_15_arasi,2,Kombi_Dogalgaz,bilinmiyor,yok,var,var,var,yok,yok,var,var,yok,yok,yok,yok,yok,yok,yok,yok,yok,yok,yok,yok,yok,yok,yok,var,yok,yok,yok,yok,yok,yok,kademe_6,kotu,normal,kotu,100_125_m2,4_oda,orta_4_7_kat,1_banyo,yok,yok,yok,dusuk,yok,dusuk,yok,2_3_Milyon_TL_Arasi
Mardin,Kiziltepe,Satilik,11_15_arasi,9,Klima,bilinmiyor,yok,yok,yok,yok,yok,yok,yok,yok,yok,yok,yok,yok,yok,yok,yok,yok,yok,yok,yok,yok,yok,yok,yok,yok,yok,yok,yok,yok,yok,yok,kademe_6,bilinmiyor,bilinmiyor,bilinmiyor,150_200_m2,3_oda,orta_4_7_kat,1_banyo,yok,yok,yok,dusuk,yok,dusuk,yok,2_3_Milyon_TL_Arasi
Diyarbakir,Yenisehir,Satilik,0,5,Merkezi,bilinmiyor,yok,var,var,var,yok,yok,yok,var,yok,yok,yok,yok,yok,yok,yok,yok,yok,yok,yok,yok,yok,yok,yok,yok,yok,yok,yok,yok,yok,yok,kademe_6,normal,bilinmiyor,bilinmiyor,75_100_m2,3_oda,yuksek_8_15_kat,1_banyo,yok,yok,yok,dusuk,yok,yok,yok,2_3_Milyon_TL_Arasi
Van,Edremit,Satilik,11_15_arasi,2,Kombi,bilinmiyor,yok,var,yok,var,yok,var,var,var,var,yok,var,yok,yok,yok,yok,yok,yok,yok,yok,yok,yok,yok,var,var,yok,var,yok,yok,yok,yok,kademe_6,normal,kotu,bilinmiyor,100_125_m2,4_oda,orta_4_7_kat,1_banyo,dusuk,dusuk,yok,orta,orta,yuksek,yok,2_3_Milyon_TL_Arasi
Diyarbakir,Kayapinar,Satilik,1_5_arasi,8,Merkezi,bilinmiyor,yok,yok,yok,yok,yok,yok,yok,yok,yok,yok,yok,yok,yok,yok,yok,yok,yok,yok,yok,yok,yok,yok,yok,yok,yok,yok,yok,yok,yok,yok,kademe_6,iyi,normal,bilinmiyor,125_150_m2,4_oda,yuksek_8_15_kat,2_banyo,yok,yok,yok,dusuk,yok,yok,yok,5_7_Bucuk_Milyon_TL_Arasi
Diyarbakir,Sur,Satilik,0,bilinmiyor,Yerden_Isitma,bilinmiyor,yok,yok,yok,yok,yok,yok,yok,yok,yok,yok,yok,yok,yok,yok,yok,yok,yok,yok,yok,yok,yok,yok,yok,yok,yok,yok,yok,yok,yok,var,kademe_6,bilinmiyor,iyi,iyi,300_m2_ve_ustu,7_oda_ve_ustu,orta_4_7_kat,3_banyo_ve_ustu,yok,yok,yok,dusuk,yok,yok,yok,10_Milyon_TL_Ustu
Van,Edremit,Satilik,21_25_arasi,bilinmiyor,Kombi_Dogalgaz,bilinmiyor,yok,var,yok,var,yok,var,var,var,var,yok,yok,yok,yok,yok,yok,yok,yok,yok,yok,yok,yok,yok,var,var,yok,var,yok,yok,yok,var,kademe_6,bilinmiyor,bilinmiyor,bilinmiyor,300_m2_ve_ustu,6_oda,orta_4_7_kat,1_banyo,yok,dusuk,yok,dusuk,yok,orta,yok,10_Milyon_TL_Ustu
Batman,Merkez,Satilik,0,9,Kombi,bilinmiyor,yok,var,yok,var,yok,yok,yok,yok,yok,yok,yok,yok,yok,yok,yok,yok,yok,yok,yok,yok,yok,yok,yok,yok,yok,yok,yok,yok,yok,yok,kademe_6,iyi,normal,bilinmiyor,125_150_m2,3_oda,yuksek_8_15_kat,2_banyo,yok,yok,yok,dusuk,yok,yok,yok,2_3_Milyon_TL_Arasi
Mardin,Nusaybin,Satilik,6_10_arasi,1,Kat_Kaloriferi,bilinmiyor,yok,var,var,var,yok,yok,yok,yok,yok,yok,yok,yok,yok,yok,yok,yok,yok,yok,yok,yok,yok,yok,yok,yok,yok,yok,yok,yok,yok,yok,kademe_6,bilinmiyor,bilinmiyor,kotu,150_200_m2,4_oda,orta_4_7_kat,2_banyo,yok,yok,yok,dusuk,yok,yok,yok,4_5_Milyon_TL_Arasi
Batman,Merkez,Satilik,0,1,Yerden_Isitma,bilinmiyor,yok,var,yok,var,yok,yok,yok,yok,yok,yok,yok,yok,yok,yok,yok,yok,yok,yok,yok,yok,yok,yok,yok,yok,yok,yok,yok,yok,yok,yok,kademe_6,kotu,bilinmiyor,kotu,75_100_m2,3_oda,orta_4_7_kat,1_banyo,yok,yok,yok,dusuk,yok,yok,yok,2_3_Milyon_TL_Arasi
Mus,Merkez,Satilik,21_25_arasi,1,bilinmiyor,bilinmiyor,yok,yok,yok,var,yok,yok,yok,yok,yok,yok,yok,yok,yok,yok,yok,yok,yok,yok,yok,yok,yok,yok,yok,yok,yok,yok,yok,yok,yok,yok,kademe_6,bilinmiyor,bilinmiyor,bilinmiyor,150_200_m2,4_oda,alcak_1_3_kat,2_banyo,yok,yok,yok,yok,yok,yok,yok,3_4_Milyon_TL_Arasi
Gumushane,Merkez,Satilik,16_20_arasi,1,Kombi,bilinmiyor,yok,var,var,var,yok,yok,yok,yok,yok,yok,yok,yok,yok,yok,yok,yok,yok,yok,yok,yok,yok,yok,yok,yok,yok,yok,yok,yok,yok,yok,kademe_6,normal,normal,kotu,125_150_m2,4_oda,yuksek_8_15_kat,1_banyo,yok,yok,yok,dusuk,yok,yok,yok,3_4_Milyon_TL_Arasi
Diyarbakir,Baglar,Satilik,1_5_arasi,Yuksek_Giris,Kombi_Dogalgaz,bilinmiyor,yok,var,yok,var,yok,yok,yok,yok,yok,yok,yok,yok,yok,yok,yok,yok,yok,yok,yok,yok,yok,yok,yok,yok,yok,yok,yok,yok,yok,yok,kademe_6,normal,normal,normal,75_100_m2,4_oda,yuksek_8_15_kat,3_banyo_ve_ustu,yok,yok,yok,dusuk,yok,yok,yok,3_4_Milyon_TL_Arasi
Igdir,Merkez,Satilik,0,Yuksek_Giris,Kombi,bilinmiyor,yok,yok,var,var,yok,yok,yok,yok,yok,yok,yok,yok,yok,yok,yok,yok,yok,yok,yok,yok,yok,yok,yok,yok,yok,yok,yok,yok,yok,yok,kademe_6,iyi,normal,iyi,0_50_m2,2_oda,orta_4_7_kat,1_banyo,yok,yok,yok,dusuk,yok,yok,yok,1_5_2_Milyon_TL_Arasi
Mardin,Artuklu,Satilik,11_15_arasi,6,Kombi,bilinmiyor,yok,var,var,var,yok,yok,var,yok,yok,yok,var,var,yok,yok,yok,yok,yok,yok,yok,yok,yok,yok,yok,yok,yok,var,yok,yok,yok,yok,kademe_6,normal,normal,bilinmiyor,200_300_m2,5_oda,orta_4_7_kat,2_banyo,dusuk,yok,yok,dusuk,yuksek,yuksek,yok,4_5_Milyon_TL_Arasi
Van,Ipekyolu,Satilik,11_15_arasi,3,Kombi,bilinmiyor,yok,var,var,var,yok,yok,yok,yok,yok,yok,yok,yok,yok,yok,yok,yok,yok,yok,yok,yok,yok,yok,yok,yok,yok,yok,yok,yok,yok,yok,kademe_6,normal,iyi,bilinmiyor,150_200_m2,4_oda,yuksek_8_15_kat,1_banyo,yok,yok,yok,yok,yok,yok,yok,3_4_Milyon_TL_Arasi
Mardin,Artuklu,Satilik,11_15_arasi,1,bilinmiyor,bilinmiyor,yok,var,yok,yok,yok,yok,yok,yok,yok,yok,yok,yok,yok,yok,yok,yok,yok,yok,yok,yok,yok,yok,yok,yok,yok,yok,yok,yok,yok,yok,kademe_6,iyi,bilinmiyor,bilinmiyor,200_300_m2,5_oda,alcak_1_3_kat,2_banyo,yok,yok,yok,dusuk,yok,yok,yok,4_5_Milyon_TL_Arasi
Mardin,Artuklu,Satilik,0,5,Kombi,bilinmiyor,yok,var,var,var,yok,yok,yok,var,yok,yok,var,yok,yok,var,yok,yok,yok,yok,yok,yok,yok,yok,var,yok,yok,var,yok,yok,yok,yok,kademe_6,iyi,normal,bilinmiyor,50_75_m2,2_oda,yuksek_8_15_kat,1_banyo,dusuk,yok,yok,dusuk,dusuk,yuksek,yok,1_5_2_Milyon_TL_Arasi
Mardin,Artuklu,Satilik,6_10_arasi,Zemin,Kombi,bilinmiyor,yok,var,yok,var,yok,yok,yok,yok,yok,yok,yok,yok,yok,yok,yok,yok,yok,yok,yok,yok,yok,yok,var,yok,yok,yok,yok,yok,yok,yok,kademe_6,normal,iyi,bilinmiyor,150_200_m2,4_oda,yuksek_8_15_kat,1_banyo,dusuk,yok,yok,dusuk,dusuk,yuksek,yok,2_3_Milyon_TL_Arasi
Van,Ipekyolu,Satilik,6_10_arasi,6,Kombi,bilinmiyor,yok,var,var,var,var,yok,yok,yok,yok,yok,yok,yok,yok,yok,yok,yok,yok,yok,yok,yok,yok,yok,yok,yok,yok,yok,yok,yok,yok,yok,kademe_6,iyi,normal,iyi,50_75_m2,2_oda,orta_4_7_kat,1_banyo,yok,yok,yok,dusuk,yok,yok,yok,1_5_2_Milyon_TL_Arasi
Diyarbakir,Yenisehir,Satilik,6_10_arasi,Kot_1,Soba,bilinmiyor,yok,yok,yok,yok,yok,yok,yok,yok,yok,yok,yok,yok,yok,yok,yok,yok,yok,yok,yok,yok,yok,yok,yok,yok,yok,yok,yok,yok,yok,yok,kademe_6,kotu,normal,bilinmiyor,150_200_m2,5_oda,orta_4_7_kat,1_banyo,yok,yok,yok,dusuk,yok,yok,yok,2_3_Milyon_TL_Arasi
Van,Ipekyolu,Satilik,0,4,Yerden_Isitma,bilinmiyor,yok,var,yok,var,yok,var,yok,var,yok,yok,yok,yok,yok,yok,yok,yok,yok,yok,yok,yok,yok,yok,yok,yok,yok,yok,yok,yok,yok,yok,kademe_6,iyi,bilinmiyor,normal,100_125_m2,3_oda,orta_4_7_kat,1_banyo,yok,yok,yok,dusuk,yok,yok,yok,3_4_Milyon_TL_Arasi
Van,Ipekyolu,Satilik,1_5_arasi,Yuksek_Giris,Kombi_Dogalgaz,bilinmiyor,yok,var,yok,var,yok,var,yok,var,yok,yok,yok,yok,yok,yok,yok,yok,yok,yok,yok,yok,yok,yok,yok,yok,yok,yok,yok,yok,yok,yok,kademe_6,normal,bilinmiyor,normal,75_100_m2,3_oda,orta_4_7_kat,1_banyo,yok,yok,yok,dusuk,yok,yok,yok,2_3_Milyon_TL_Arasi
Van,Ipekyolu,Satilik,16_20_arasi,6,Kombi,bilinmiyor,yok,var,yok,var,yok,var,yok,var,yok,yok,var,yok,yok,yok,yok,yok,yok,yok,yok,yok,yok,yok,yok,yok,yok,var,yok,yok,yok,yok,kademe_6,normal,normal,normal,200_300_m2,4_oda,orta_4_7_kat,1_banyo,yok,yok,dusuk,dusuk,orta,dusuk,yok,3_4_Milyon_TL_Arasi
Van,Ipekyolu,Satilik,0,4,Yerden_Isitma,bilinmiyor,yok,var,var,var,yok,var,yok,yok,yok,yok,var,yok,yok,var,yok,yok,yok,yok,yok,yok,yok,yok,yok,yok,yok,var,var,yok,yok,yok,kademe_6,normal,iyi,bilinmiyor,125_150_m2,3_oda,orta_4_7_kat,2_banyo,orta,dusuk,yok,orta,orta,yuksek,yok,4_5_Milyon_TL_Arasi
Diyarbakir,Kayapinar,Satilik,0,Bahce,Yerden_Isitma,bilinmiyor,yok,yok,yok,var,yok,yok,var,var,yok,yok,yok,yok,yok,yok,yok,yok,yok,yok,yok,yok,yok,yok,yok,yok,yok,yok,yok,yok,yok,var,kademe_6,bilinmiyor,bilinmiyor,bilinmiyor,300_m2_ve_ustu,7_oda_ve_ustu,orta_4_7_kat,3_banyo_ve_ustu,yok,yok,dusuk,orta,orta,yok,yok,10_Milyon_TL_Ustu
Mardin,Artuklu,Satilik,0,5,Kombi,bilinmiyor,yok,var,yok,var,yok,yok,yok,var,yok,yok,var,yok,yok,yok,yok,yok,yok,yok,yok,yok,yok,yok,yok,yok,yok,yok,yok,yok,yok,yok,kademe_6,normal,normal,bilinmiyor,50_75_m2,2_oda,orta_4_7_kat,1_banyo,yok,yok,dusuk,dusuk,orta,yuksek,yok,1_5_Milyon_TL_Alti
Mardin,Kiziltepe,Satilik,16_20_arasi,1,bilinmiyor,bilinmiyor,yok,var,var,yok,yok,yok,yok,yok,yok,yok,yok,yok,yok,yok,yok,yok,yok,yok,yok,yok,yok,yok,yok,yok,yok,yok,yok,yok,yok,yok,kademe_6,normal,kotu,bilinmiyor,150_200_m2,4_oda,alcak_1_3_kat,2_banyo,yok,yok,yok,dusuk,yok,yok,yok,2_3_Milyon_TL_Arasi
Van,Ipekyolu,Satilik,11_15_arasi,Yuksek_Giris,Kombi_Dogalgaz,bilinmiyor,yok,var,yok,var,yok,var,yok,var,yok,yok,var,yok,yok,yok,yok,yok,yok,yok,yok,yok,yok,yok,var,yok,yok,var,yok,yok,yok,yok,kademe_6,normal,normal,bilinmiyor,100_125_m2,4_oda,orta_4_7_kat,1_banyo,yok,yok,yok,dusuk,orta,orta,yok,2_3_Milyon_TL_Arasi
Van,Ipekyolu,Satilik,1_5_arasi,3,Kombi_Dogalgaz,bilinmiyor,yok,yok,yok,yok,yok,yok,yok,var,var,yok,yok,yok,yok,yok,yok,yok,yok,yok,yok,yok,yok,yok,yok,yok,yok,yok,yok,yok,yok,yok,kademe_6,normal,normal,bilinmiyor,100_125_m2,4_oda,orta_4_7_kat,1_banyo,yok,yok,yok,dusuk,yok,yok,yok,4_5_Milyon_TL_Arasi
Mardin,Artuklu,Satilik,0,12,Kombi,bilinmiyor,yok,var,yok,var,yok,yok,yok,yok,yok,yok,yok,yok,yok,yok,yok,yok,yok,yok,yok,yok,yok,yok,yok,yok,yok,yok,yok,yok,yok,yok,kademe_6,normal,normal,bilinmiyor,150_200_m2,4_oda,yuksek_8_15_kat,2_banyo,yok,yok,yok,dusuk,dusuk,yok,yok,2_3_Milyon_TL_Arasi
Van,Ipekyolu,Satilik,1_5_arasi,bilinmiyor,Kombi_Dogalgaz,bilinmiyor,yok,yok,yok,yok,yok,var,var,var,yok,yok,yok,yok,yok,yok,yok,yok,yok,yok,yok,yok,yok,yok,yok,yok,yok,yok,yok,yok,yok,var,kademe_6,bilinmiyor,bilinmiyor,bilinmiyor,300_m2_ve_ustu,7_oda_ve_ustu,orta_4_7_kat,2_banyo,yok,yok,yok,dusuk,yok,yok,yok,10_Milyon_TL_Ustu
Van,Ipekyolu,Satilik,11_15_arasi,1,Merkezi,bilinmiyor,yok,var,var,var,var,yok,var,yok,yok,yok,var,yok,yok,yok,yok,yok,yok,yok,yok,yok,yok,yok,yok,yok,yok,var,yok,yok,yok,yok,kademe_6,normal,kotu,bilinmiyor,75_100_m2,2_oda,orta_4_7_kat,1_banyo,dusuk,yok,dusuk,orta,orta,orta,yok,1_5_2_Milyon_TL_Arasi
Mardin,Artuklu,Satilik,1_5_arasi,Yuksek_Giris,Kombi,bilinmiyor,yok,var,var,var,yok,yok,yok,yok,yok,yok,yok,yok,yok,yok,yok,yok,yok,yok,yok,yok,yok,yok,yok,yok,yok,yok,yok,yok,yok,yok,kademe_6,kotu,normal,kotu,200_300_m2,4_oda,yuksek_8_15_kat,2_banyo,yok,yok,yok,dusuk,yok,yok,yok,2_3_Milyon_TL_Arasi
Bingol,Merkez,Satilik,6_10_arasi,1,bilinmiyor,bilinmiyor,yok,var,yok,var,yok,yok,yok,yok,yok,yok,yok,yok,yok,yok,yok,yok,yok,yok,yok,yok,yok,yok,yok,yok,yok,yok,yok,yok,yok,yok,kademe_6,normal,bilinmiyor,bilinmiyor,125_150_m2,4_oda,alcak_1_3_kat,1_banyo,yok,yok,yok,yok,yok,yok,yok,3_4_Milyon_TL_Arasi
Van,Tusba,Satilik,1_5_arasi,bilinmiyor,Kat_Kaloriferi,bilinmiyor,yok,yok,yok,yok,yok,yok,yok,yok,yok,yok,yok,yok,yok,yok,yok,yok,yok,yok,yok,yok,yok,yok,yok,yok,yok,yok,yok,yok,yok,yok,kademe_6,kotu,kotu,bilinmiyor,200_300_m2,6_oda,orta_4_7_kat,1_banyo,yok,yok,yok,dusuk,yok,yok,yok,10_Milyon_TL_Ustu
Batman,Merkez,Satilik,1_5_arasi,Bodrum,Kombi,bilinmiyor,yok,yok,var,yok,yok,yok,yok,var,yok,yok,var,yok,yok,yok,yok,yok,yok,yok,yok,yok,yok,yok,yok,yok,yok,var,yok,yok,yok,yok,kademe_6,iyi,bilinmiyor,iyi,100_125_m2,3_oda,orta_4_7_kat,1_banyo,yok,yok,yok,dusuk,orta,dusuk,yok,1_5_2_Milyon_TL_Arasi
Kars,Merkez,Satilik,6_10_arasi,1,Kombi_Dogalgaz,bilinmiyor,yok,var,var,var,yok,var,var,var,var,yok,yok,yok,yok,yok,yok,yok,yok,yok,yok,yok,yok,yok,yok,yok,yok,var,yok,yok,yok,yok,kademe_6,kotu,kotu,bilinmiyor,100_125_m2,3_oda,orta_4_7_kat,1_banyo,yok,yok,yok,dusuk,dusuk,orta,yok,1_5_Milyon_TL_Alti
Mardin,Artuklu,Satilik,1_5_arasi,6,Kombi_Dogalgaz,bilinmiyor,yok,var,yok,var,yok,var,var,var,yok,yok,yok,yok,yok,var,yok,yok,yok,yok,yok,yok,yok,yok,var,yok,yok,var,yok,yok,yok,yok,kademe_6,iyi,normal,bilinmiyor,50_75_m2,2_oda,yuksek_8_15_kat,1_banyo,dusuk,dusuk,yok,dusuk,yok,yuksek,yok,1_5_2_Milyon_TL_Arasi
Adiyaman,Merkez,Satilik,11_15_arasi,4,Kombi_Dogalgaz,bilinmiyor,yok,yok,yok,var,yok,yok,var,yok,var,yok,yok,yok,yok,yok,yok,yok,yok,yok,yok,yok,yok,yok,yok,yok,yok,yok,yok,yok,yok,yok,kademe_6,iyi,normal,bilinmiyor,75_100_m2,3_oda,orta_4_7_kat,1_banyo,yok,yok,yok,dusuk,yok,yok,yok,1_5_Milyon_TL_Alti
Van,Ipekyolu,Satilik,6_10_arasi,2,Kombi_Dogalgaz,bilinmiyor,yok,yok,yok,yok,yok,yok,yok,yok,yok,yok,yok,yok,yok,yok,yok,yok,yok,yok,yok,yok,yok,yok,yok,yok,yok,yok,yok,yok,yok,yok,kademe_6,bilinmiyor,bilinmiyor,bilinmiyor,150_200_m2,4_oda,yuksek_8_15_kat,2_banyo,yok,yok,yok,dusuk,yok,yok,yok,5_7_Bucuk_Milyon_TL_Arasi
Adiyaman,Besni,Satilik,1_5_arasi,5,Kombi_Dogalgaz,bilinmiyor,yok,yok,yok,yok,yok,yok,yok,var,yok,yok,yok,yok,yok,yok,yok,yok,yok,yok,yok,yok,yok,yok,yok,yok,yok,yok,yok,yok,yok,yok,kademe_6,bilinmiyor,normal,bilinmiyor,100_125_m2,3_oda,orta_4_7_kat,1_banyo,yok,yok,yok,dusuk,yok,yok,yok,2_3_Milyon_TL_Arasi
Gumushane,Merkez,Satilik,0,14,Kombi,bilinmiyor,yok,var,var,var,yok,yok,yok,yok,yok,yok,yok,yok,yok,yok,yok,yok,yok,yok,yok,yok,yok,yok,yok,yok,yok,yok,yok,yok,yok,yok,kademe_6,normal,normal,iyi,300_m2_ve_ustu,6_oda,yuksek_8_15_kat,2_banyo,yok,yok,yok,yok,yok,yok,yok,7_Bucuk_10_Milyon_TL_Arasi
Mardin,Midyat,Satilik,1_5_arasi,2,Kombi_Dogalgaz,bilinmiyor,yok,var,yok,var,var,yok,var,yok,var,yok,var,yok,yok,var,yok,yok,yok,yok,yok,yok,yok,yok,yok,yok,yok,var,yok,yok,yok,yok,kademe_6,iyi,bilinmiyor,iyi,50_75_m2,2_oda,orta_4_7_kat,1_banyo,yok,yok,yok,dusuk,yok,yuksek,yok,2_3_Milyon_TL_Arasi
Mardin,Midyat,Satilik,6_10_arasi,3,Kombi_Dogalgaz,bilinmiyor,yok,var,var,var,yok,var,yok,var,var,yok,var,var,yok,var,yok,yok,yok,yok,yok,yok,yok,yok,yok,yok,yok,var,yok,yok,yok,yok,kademe_6,iyi,normal,iyi,200_300_m2,5_oda,yuksek_8_15_kat,2_banyo,dusuk,yok,yok,dusuk,orta,yuksek,yok,5_7_Bucuk_Milyon_TL_Arasi
Diyarbakir,Kayapinar,Satilik,0,5,Merkezi,bilinmiyor,yok,var,var,var,yok,yok,yok,yok,yok,yok,yok,yok,yok,yok,yok,yok,yok,yok,yok,yok,yok,yok,yok,yok,yok,yok,yok,yok,yok,yok,kademe_6,bilinmiyor,normal,bilinmiyor,75_100_m2,3_oda,orta_4_7_kat,1_banyo,yok,yok,yok,dusuk,yok,yok,yok,4_5_Milyon_TL_Arasi
Batman,Merkez,Satilik,0,1,Kombi,bilinmiyor,yok,var,var,var,yok,yok,var,var,yok,yok,var,yok,yok,yok,yok,yok,yok,yok,yok,yok,yok,yok,yok,yok,yok,var,yok,yok,yok,yok,kademe_6,normal,iyi,iyi,150_200_m2,4_oda,orta_4_7_kat,2_banyo,dusuk,yok,yok,dusuk,orta,yuksek,yok,4_5_Milyon_TL_Arasi
Adiyaman,Merkez,Satilik,0,3,Kombi,bilinmiyor,yok,var,yok,var,yok,var,var,var,yok,yok,yok,yok,yok,yok,yok,yok,yok,yok,yok,yok,yok,yok,yok,yok,yok,yok,yok,yok,yok,yok,kademe_6,iyi,normal,bilinmiyor,100_125_m2,3_oda,orta_4_7_kat,1_banyo,yok,yok,yok,dusuk,yok,yok,yok,3_4_Milyon_TL_Arasi
Siirt,Merkez,Satilik,6_10_arasi,1,bilinmiyor,bilinmiyor,yok,var,yok,yok,yok,yok,yok,yok,yok,yok,yok,yok,yok,yok,yok,yok,yok,yok,yok,yok,yok,yok,yok,yok,yok,yok,yok,yok,yok,yok,kademe_6,bilinmiyor,bilinmiyor,bilinmiyor,50_75_m2,1_oda,alcak_1_3_kat,1_banyo,yok,yok,yok,dusuk,yok,yok,yok,1_5_Milyon_TL_Alti
Diyarbakir,Kayapinar,Satilik,0,3,Merkezi,bilinmiyor,yok,var,var,var,yok,yok,var,yok,yok,yok,yok,yok,yok,yok,yok,yok,yok,yok,yok,yok,yok,yok,yok,yok,yok,yok,yok,yok,yok,yok,kademe_6,bilinmiyor,bilinmiyor,bilinmiyor,75_100_m2,3_oda,yuksek_8_15_kat,1_banyo,yok,yok,yok,dusuk,yok,yok,yok,3_4_Milyon_TL_Arasi
Van,Ipekyolu,Satilik,0,Yuksek_Giris,Kombi,bilinmiyor,yok,var,var,yok,yok,yok,var,yok,var,yok,yok,yok,yok,yok,yok,yok,yok,yok,yok,yok,yok,yok,yok,yok,yok,yok,yok,yok,yok,var,kademe_6,iyi,iyi,iyi,125_150_m2,4_oda,orta_4_7_kat,2_banyo,yok,yok,yok,dusuk,yok,yok,yok,3_4_Milyon_TL_Arasi
Mardin,Artuklu,Satilik,6_10_arasi,Yuksek_Giris,Kombi_Dogalgaz,bilinmiyor,yok,yok,yok,yok,yok,yok,yok,yok,yok,yok,yok,yok,yok,yok,yok,yok,yok,yok,yok,yok,yok,yok,yok,yok,yok,yok,yok,yok,yok,yok,kademe_6,normal,iyi,bilinmiyor,75_100_m2,3_oda,yuksek_8_15_kat,1_banyo,yok,yok,yok,dusuk,yok,yok,yok,1_5_2_Milyon_TL_Arasi
Bitlis,Merkez,Satilik,1_5_arasi,5,Kombi_Dogalgaz,bilinmiyor,yok,var,var,yok,var,var,var,var,yok,yok,yok,yok,yok,yok,yok,yok,yok,yok,yok,yok,yok,yok,yok,yok,yok,yok,yok,yok,yok,yok,kademe_6,normal,normal,normal,50_75_m2,3_oda,orta_4_7_kat,1_banyo,yok,yok,yok,dusuk,yok,yok,yok,1_5_2_Milyon_TL_Arasi
Diyarbakir,Ergani,Satilik,31_ve_uzeri,Zemin,bilinmiyor,bilinmiyor,yok,yok,yok,yok,yok,yok,yok,yok,yok,yok,yok,yok,yok,yok,yok,yok,yok,yok,yok,yok,yok,yok,yok,yok,yok,yok,yok,yok,yok,yok,kademe_6,bilinmiyor,bilinmiyor,bilinmiyor,150_200_m2,2_oda,alcak_1_3_kat,1_banyo,yok,yok,yok,dusuk,yok,yok,yok,3_4_Milyon_TL_Arasi
Van,Edremit,Satilik,0,3,Kombi_Dogalgaz,bilinmiyor,yok,var,var,var,yok,yok,var,var,yok,yok,var,yok,yok,yok,yok,yok,yok,yok,yok,yok,yok,yok,var,var,yok,var,yok,yok,yok,yok,kademe_6,bilinmiyor,iyi,bilinmiyor,100_125_m2,3_oda,orta_4_7_kat,bilinmiyor,orta,yok,yok,orta,orta,orta,yok,3_4_Milyon_TL_Arasi
Mardin,Midyat,Satilik,0,En_Ust_Kat,Kombi_Dogalgaz,bilinmiyor,yok,var,var,var,yok,yok,var,yok,yok,yok,var,var,yok,var,yok,yok,yok,var,yok,yok,yok,yok,yok,yok,yok,var,yok,yok,yok,yok,kademe_6,iyi,normal,normal,125_150_m2,3_oda,orta_4_7_kat,2_banyo,dusuk,yok,yok,orta,orta,yuksek,yok,3_4_Milyon_TL_Arasi
Mardin,Kiziltepe,Satilik,1_5_arasi,1,bilinmiyor,bilinmiyor,yok,var,var,yok,yok,yok,yok,yok,yok,yok,yok,yok,yok,yok,yok,yok,yok,yok,yok,yok,yok,yok,yok,yok,yok,yok,yok,yok,yok,yok,kademe_6,bilinmiyor,bilinmiyor,bilinmiyor,200_300_m2,5_oda,alcak_1_3_kat,1_banyo,yok,yok,yok,dusuk,yok,yok,yok,5_7_Bucuk_Milyon_TL_Arasi
Van,Ercis,Satilik,1_5_arasi,5,Kombi_Dogalgaz,bilinmiyor,yok,var,var,var,yok,yok,var,var,yok,yok,var,yok,yok,yok,yok,yok,yok,yok,yok,yok,yok,yok,yok,var,yok,yok,yok,yok,yok,yok,kademe_6,iyi,normal,normal,125_150_m2,4_oda,orta_4_7_kat,1_banyo,yok,yok,yok,dusuk,dusuk,yuksek,yok,3_4_Milyon_TL_Arasi
Diyarbakir,Kayapinar,Satilik,11_15_arasi,11,Merkezi,bilinmiyor,yok,var,var,yok,yok,var,var,var,yok,yok,yok,yok,yok,yok,yok,yok,yok,yok,yok,yok,yok,yok,yok,yok,yok,yok,yok,yok,yok,yok,kademe_6,iyi,normal,bilinmiyor,200_300_m2,6_oda,cok_yuksek_16_ustu_kat,2_banyo,dusuk,yok,yok,dusuk,yok,dusuk,yok,5_7_Bucuk_Milyon_TL_Arasi
Van,Ipekyolu,Satilik,0,2,Yerden_Isitma,bilinmiyor,yok,var,yok,var,yok,yok,var,var,yok,yok,var,var,yok,var,yok,yok,yok,yok,yok,yok,yok,yok,yok,yok,yok,var,yok,yok,yok,yok,kademe_6,kotu,normal,bilinmiyor,125_150_m2,4_oda,orta_4_7_kat,2_banyo,dusuk,yok,dusuk,orta,orta,yuksek,yok,4_5_Milyon_TL_Arasi
Adiyaman,Merkez,Satilik,0,4,Yerden_Isitma,bilinmiyor,yok,var,yok,var,var,yok,yok,yok,yok,yok,yok,yok,yok,yok,yok,yok,yok,yok,yok,yok,yok,yok,yok,yok,yok,yok,yok,yok,yok,yok,kademe_6,iyi,bilinmiyor,iyi,50_75_m2,2_oda,orta_4_7_kat,1_banyo,yok,yok,yok,dusuk,yok,yok,yok,2_3_Milyon_TL_Arasi
Mardin,Artuklu,Satilik,6_10_arasi,3,Kombi,bilinmiyor,yok,var,var,var,yok,yok,yok,yok,yok,yok,var,yok,yok,yok,yok,yok,yok,yok,yok,yok,yok,yok,var,yok,yok,var,yok,yok,yok,yok,kademe_6,iyi,bilinmiyor,bilinmiyor,150_200_m2,4_oda,orta_4_7_kat,1_banyo,dusuk,yok,yok,dusuk,orta,yuksek,yok,2_3_Milyon_TL_Arasi
Mardin,Artuklu,Satilik,0,8,Kombi,bilinmiyor,yok,var,yok,yok,var,yok,yok,var,yok,yok,var,yok,yok,yok,yok,yok,yok,yok,yok,yok,yok,yok,var,yok,yok,yok,yok,yok,yok,yok,kademe_6,normal,normal,bilinmiyor,50_75_m2,2_oda,yuksek_8_15_kat,1_banyo,dusuk,yok,dusuk,orta,yuksek,yuksek,yok,1_5_2_Milyon_TL_Arasi
Van,Ercis,Satilik,11_15_arasi,3,Kombi_Dogalgaz,bilinmiyor,yok,var,var,var,yok,var,yok,var,yok,yok,var,yok,yok,var,yok,yok,yok,yok,yok,yok,yok,yok,yok,var,yok,yok,yok,yok,yok,yok,kademe_6,normal,kotu,normal,125_150_m2,4_oda,orta_4_7_kat,1_banyo,yok,yok,yok,dusuk,yok,orta,yok,3_4_Milyon_TL_Arasi
Mardin,Artuklu,Satilik,6_10_arasi,1,Kombi,bilinmiyor,yok,var,var,var,yok,yok,var,var,yok,yok,var,yok,yok,yok,yok,yok,yok,yok,yok,yok,yok,yok,var,yok,yok,var,yok,yok,yok,yok,kademe_6,kotu,kotu,kotu,100_125_m2,3_oda,orta_4_7_kat,1_banyo,yok,yok,dusuk,dusuk,yuksek,yuksek,yok,2_3_Milyon_TL_Arasi
Mardin,Artuklu,Satilik,16_20_arasi,1,bilinmiyor,bilinmiyor,yok,var,yok,yok,yok,yok,yok,yok,yok,yok,yok,yok,yok,yok,yok,yok,yok,yok,yok,yok,yok,yok,yok,yok,yok,yok,yok,yok,yok,yok,kademe_6,iyi,normal,bilinmiyor,200_300_m2,5_oda,alcak_1_3_kat,2_banyo,yok,yok,yok,dusuk,yok,yok,yok,2_3_Milyon_TL_Arasi
Adiyaman,Merkez,Satilik,11_15_arasi,4,Kombi_Dogalgaz,bilinmiyor,yok,yok,yok,var,yok,yok,var,var,var,yok,yok,yok,yok,yok,yok,yok,yok,yok,yok,yok,yok,yok,yok,yok,yok,yok,yok,yok,yok,yok,kademe_6,bilinmiyor,normal,bilinmiyor,150_200_m2,4_oda,yuksek_8_15_kat,1_banyo,yok,yok,yok,dusuk,yok,yok,yok,2_3_Milyon_TL_Arasi
Diyarbakir,Yenisehir,Satilik,31_ve_uzeri,2,Kombi,bilinmiyor,yok,var,yok,yok,yok,var,yok,yok,yok,yok,yok,yok,yok,yok,yok,yok,yok,yok,yok,yok,yok,yok,yok,yok,yok,yok,yok,yok,yok,yok,kademe_6,normal,kotu,iyi,125_150_m2,4_oda,orta_4_7_kat,1_banyo,yok,yok,yok,dusuk,yok,yok,yok,3_4_Milyon_TL_Arasi
Diyarbakir,Kayapinar,Satilik,1_5_arasi,5,Merkezi,bilinmiyor,yok,var,var,var,yok,yok,yok,yok,yok,yok,yok,yok,yok,yok,yok,yok,yok,yok,yok,yok,yok,yok,yok,yok,yok,yok,yok,yok,yok,yok,kademe_6,normal,iyi,bilinmiyor,150_200_m2,4_oda,yuksek_8_15_kat,2_banyo,yok,yok,yok,dusuk,yok,dusuk,yok,5_7_Bucuk_Milyon_TL_Arasi
Siirt,Merkez,Satilik,1_5_arasi,1,bilinmiyor,bilinmiyor,yok,yok,yok,var,yok,yok,yok,yok,yok,yok,yok,yok,yok,yok,yok,yok,yok,yok,yok,yok,yok,yok,yok,yok,yok,yok,yok,yok,yok,yok,kademe_6,bilinmiyor,bilinmiyor,bilinmiyor,300_m2_ve_ustu,7_oda_ve_ustu,alcak_1_3_kat,3_banyo_ve_ustu,yok,yok,yok,dusuk,yok,yok,yok,7_Bucuk_10_Milyon_TL_Arasi
Adiyaman,Merkez,Satilik,0,Giris,Kombi,bilinmiyor,yok,var,var,var,yok,var,yok,var,yok,yok,yok,yok,yok,yok,yok,yok,yok,yok,yok,yok,yok,yok,yok,yok,yok,yok,yok,yok,yok,yok,kademe_6,iyi,bilinmiyor,bilinmiyor,100_125_m2,4_oda,orta_4_7_kat,1_banyo,yok,yok,yok,yok,yok,yok,yok,2_3_Milyon_TL_Arasi
Van,Ipekyolu,Satilik,11_15_arasi,5,Kombi,bilinmiyor,yok,var,var,var,yok,var,yok,var,var,yok,var,yok,yok,yok,yok,yok,yok,yok,yok,yok,yok,yok,var,yok,yok,var,yok,yok,yok,yok,kademe_6,normal,kotu,bilinmiyor,150_200_m2,4_oda,orta_4_7_kat,1_banyo,yok,yok,yok,dusuk,dusuk,yok,yok,3_4_Milyon_TL_Arasi
Adiyaman,Merkez,Satilik,0,2,Yerden_Isitma,bilinmiyor,yok,var,yok,var,yok,var,yok,yok,var,yok,yok,yok,yok,yok,yok,yok,yok,yok,yok,yok,yok,yok,yok,yok,yok,var,yok,yok,yok,yok,kademe_6,iyi,bilinmiyor,bilinmiyor,150_200_m2,4_oda,orta_4_7_kat,1_banyo,yok,yok,yok,dusuk,dusuk,orta,yok,5_7_Bucuk_Milyon_TL_Arasi
Adiyaman,Merkez,Satilik,0,4,Kombi,bilinmiyor,yok,var,yok,var,yok,yok,yok,yok,var,yok,yok,yok,yok,yok,yok,yok,yok,yok,yok,yok,yok,yok,yok,yok,yok,yok,yok,yok,yok,yok,kademe_6,bilinmiyor,normal,normal,50_75_m2,2_oda,orta_4_7_kat,1_banyo,yok,yok,yok,dusuk,yok,yok,yok,1_5_2_Milyon_TL_Arasi
Gumushane,Merkez,Satilik,26_30_arasi,3,Kombi,bilinmiyor,yok,var,yok,var,yok,yok,yok,yok,yok,yok,yok,yok,yok,yok,yok,yok,yok,yok,yok,yok,yok,yok,yok,yok,yok,yok,yok,yok,yok,yok,kademe_6,kotu,kotu,kotu,125_150_m2,4_oda,orta_4_7_kat,1_banyo,yok,yok,yok,dusuk,yok,dusuk,yok,2_3_Milyon_TL_Arasi
Igdir,Merkez,Satilik,1_5_arasi,Giris,Merkezi,bilinmiyor,yok,var,yok,var,yok,yok,yok,yok,yok,yok,yok,yok,yok,yok,yok,yok,yok,yok,yok,yok,yok,yok,yok,yok,yok,yok,yok,yok,yok,yok,kademe_6,bilinmiyor,kotu,kotu,75_100_m2,3_oda,orta_4_7_kat,1_banyo,yok,yok,yok,dusuk,yok,yok,yok,2_3_Milyon_TL_Arasi
Mardin,Artuklu,Satilik,26_30_arasi,1,Kombi_Dogalgaz,bilinmiyor,yok,yok,yok,yok,yok,yok,yok,yok,yok,yok,yok,yok,yok,yok,yok,yok,yok,yok,yok,yok,yok,yok,yok,yok,yok,yok,yok,yok,yok,yok,kademe_6,bilinmiyor,bilinmiyor,bilinmiyor,150_200_m2,4_oda,yuksek_8_15_kat,1_banyo,yok,yok,yok,dusuk,yok,yok,yok,2_3_Milyon_TL_Arasi
Mardin,Artuklu,Satilik,1_5_arasi,Bahce,Kombi,bilinmiyor,yok,var,yok,var,var,yok,yok,yok,yok,yok,var,yok,yok,var,yok,yok,yok,yok,yok,yok,yok,yok,yok,yok,yok,yok,yok,yok,yok,yok,kademe_6,normal,normal,bilinmiyor,75_100_m2,2_oda,yuksek_8_15_kat,1_banyo,dusuk,yok,yok,dusuk,orta,yuksek,yok,1_5_Milyon_TL_Alti
Sirnak,Merkez,Satilik,1_5_arasi,1,bilinmiyor,bilinmiyor,yok,var,var,yok,yok,yok,yok,yok,yok,yok,yok,yok,yok,yok,yok,yok,yok,yok,yok,yok,yok,yok,yok,yok,yok,yok,yok,yok,yok,yok,kademe_6,bilinmiyor,bilinmiyor,bilinmiyor,100_125_m2,4_oda,alcak_1_3_kat,1_banyo,yok,yok,yok,dusuk,yok,yok,yok,3_4_Milyon_TL_Arasi
Kars,Sarikamis,Satilik,1_5_arasi,4,Merkezi,bilinmiyor,yok,var,var,var,yok,yok,yok,var,yok,yok,yok,yok,yok,yok,yok,yok,yok,yok,yok,yok,yok,yok,var,yok,yok,var,yok,yok,yok,yok,kademe_6,normal,kotu,kotu,100_125_m2,3_oda,orta_4_7_kat,1_banyo,dusuk,yok,yok,yok,orta,orta,yok,2_3_Milyon_TL_Arasi
Van,Ipekyolu,Satilik,11_15_arasi,4,Kombi_Dogalgaz,bilinmiyor,yok,var,yok,var,var,var,yok,var,yok,yok,yok,yok,yok,yok,yok,yok,yok,yok,yok,yok,yok,yok,yok,yok,yok,yok,yok,yok,yok,yok,kademe_6,normal,iyi,normal,150_200_m2,4_oda,orta_4_7_kat,2_banyo,yok,yok,yok,dusuk,yok,yok,yok,4_5_Milyon_TL_Arasi
Van,Ipekyolu,Satilik,11_15_arasi,Giris,Kombi,bilinmiyor,yok,var,yok,var,yok,var,var,yok,var,yok,var,yok,yok,yok,yok,yok,yok,yok,yok,yok,yok,yok,yok,yok,yok,yok,yok,yok,yok,yok,kademe_6,kotu,normal,bilinmiyor,150_200_m2,4_oda,yuksek_8_15_kat,1_banyo,yok,yok,dusuk,dusuk,orta,dusuk,yok,3_4_Milyon_TL_Arasi
Kars,Merkez,Satilik,0,Ara_Kat,Kombi_Dogalgaz,bilinmiyor,yok,var,var,var,yok,var,yok,yok,yok,yok,yok,yok,yok,yok,yok,yok,yok,yok,yok,yok,yok,yok,yok,yok,yok,yok,yok,yok,yok,yok,kademe_6,normal,bilinmiyor,kotu,75_100_m2,3_oda,orta_4_7_kat,1_banyo,yok,yok,yok,dusuk,yok,yok,yok,2_3_Milyon_TL_Arasi
Gumushane,Torul,Satilik,0,9,Kombi,bilinmiyor,yok,var,var,var,yok,yok,yok,yok,yok,yok,yok,yok,yok,yok,yok,yok,yok,yok,yok,yok,yok,yok,yok,yok,yok,var,yok,yok,yok,yok,kademe_6,normal,iyi,bilinmiyor,100_125_m2,3_oda,yuksek_8_15_kat,1_banyo,yok,yok,yok,dusuk,yok,dusuk,yok,2_3_Milyon_TL_Arasi
Van,Ipekyolu,Satilik,6_10_arasi,3,Kombi,bilinmiyor,yok,var,var,var,var,yok,yok,yok,var,yok,yok,yok,yok,yok,yok,yok,yok,yok,yok,yok,yok,yok,yok,yok,yok,yok,yok,yok,yok,yok,kademe_6,bilinmiyor,kotu,kotu,0_50_m2,2_oda,orta_4_7_kat,1_banyo,yok,yok,yok,dusuk,dusuk,yok,yok,1_5_2_Milyon_TL_Arasi
Diyarbakir,Baglar,Satilik,6_10_arasi,1,bilinmiyor,bilinmiyor,yok,var,yok,yok,yok,yok,yok,yok,yok,yok,yok,yok,yok,yok,yok,yok,yok,yok,yok,yok,yok,yok,yok,yok,yok,yok,yok,yok,yok,yok,kademe_6,bilinmiyor,bilinmiyor,bilinmiyor,125_150_m2,4_oda,alcak_1_3_kat,2_banyo,yok,yok,yok,dusuk,yok,yok,yok,5_7_Bucuk_Milyon_TL_Arasi
Bingol,Merkez,Satilik,1_5_arasi,3,Kombi,bilinmiyor,yok,var,var,var,yok,yok,yok,yok,yok,yok,yok,yok,yok,yok,yok,yok,yok,yok,yok,yok,yok,yok,yok,yok,yok,yok,yok,yok,yok,yok,kademe_6,kotu,normal,normal,125_150_m2,4_oda,orta_4_7_kat,1_banyo,yok,yok,yok,dusuk,yok,yok,yok,5_7_Bucuk_Milyon_TL_Arasi
Van,Ipekyolu,Satilik,6_10_arasi,Yuksek_Giris,Kombi_Dogalgaz,bilinmiyor,yok,var,var,var,var,var,yok,yok,var,var,var,var,yok,var,var,yok,yok,var,yok,yok,yok,var,var,var,yok,var,var,yok,yok,var,kademe_6,kotu,normal,kotu,150_200_m2,3_oda,yuksek_8_15_kat,1_banyo,orta,orta,dusuk,orta,yuksek,yuksek,yuksek,2_3_Milyon_TL_Arasi
Van,Ipekyolu,Satilik,0,4,Yerden_Isitma,bilinmiyor,yok,var,yok,yok,yok,var,yok,var,yok,yok,yok,yok,yok,yok,yok,yok,yok,yok,yok,yok,yok,yok,yok,yok,yok,yok,yok,yok,yok,yok,kademe_6,normal,iyi,normal,125_150_m2,4_oda,orta_4_7_kat,1_banyo,yok,yok,yok,dusuk,yok,yok,yok,4_5_Milyon_TL_Arasi
Diyarbakir,Kayapinar,Satilik,21_25_arasi,En_Ust_Kat,Kombi_Dogalgaz,bilinmiyor,yok,var,var,var,yok,var,var,yok,var,yok,var,yok,yok,var,yok,yok,yok,yok,yok,yok,yok,yok,yok,yok,yok,yok,yok,yok,yok,yok,kademe_6,normal,normal,normal,150_200_m2,5_oda,yuksek_8_15_kat,1_banyo,yok,yok,yok,dusuk,orta,yuksek,yok,3_4_Milyon_TL_Arasi
Van,Edremit,Satilik,11_15_arasi,Bahce,Kombi,bilinmiyor,yok,yok,yok,var,yok,var,var,var,yok,yok,yok,yok,yok,yok,yok,yok,yok,yok,yok,yok,yok,yok,yok,yok,yok,yok,yok,yok,yok,yok,kademe_6,normal,iyi,bilinmiyor,200_300_m2,5_oda,alcak_1_3_kat,2_banyo,yok,yok,yok,dusuk,yok,yok,yok,10_Milyon_TL_Ustu
Mardin,Artuklu,Satilik,31_ve_uzeri,Bahce,Klima,bilinmiyor,yok,var,yok,yok,yok,yok,yok,yok,yok,yok,yok,yok,yok,yok,yok,yok,yok,yok,yok,yok,yok,yok,var,yok,yok,var,yok,yok,yok,yok,kademe_6,normal,kotu,bilinmiyor,300_m2_ve_ustu,5_oda,alcak_1_3_kat,3_banyo_ve_ustu,yok,yok,yok,dusuk,dusuk,orta,yok,10_Milyon_TL_Ustu
Igdir,Merkez,Satilik,11_15_arasi,2,Kombi,bilinmiyor,yok,yok,yok,var,var,yok,yok,yok,yok,yok,yok,yok,yok,yok,yok,yok,yok,yok,yok,yok,yok,yok,yok,yok,yok,yok,yok,yok,yok,yok,kademe_6,normal,kotu,normal,50_75_m2,2_oda,orta_4_7_kat,1_banyo,yok,yok,yok,dusuk,yok,yok,yok,1_5_Milyon_TL_Alti
Diyarbakir,Yenisehir,Satilik,26_30_arasi,3,Kombi_Dogalgaz,bilinmiyor,yok,var,var,var,yok,yok,var,var,yok,yok,var,yok,yok,var,yok,yok,yok,yok,yok,yok,yok,yok,yok,yok,yok,yok,yok,yok,yok,yok,kademe_6,kotu,kotu,bilinmiyor,150_200_m2,4_oda,orta_4_7_kat,1_banyo,yok,yok,yok,dusuk,dusuk,yuksek,yok,2_3_Milyon_TL_Arasi
Mardin,Artuklu,Satilik,11_15_arasi,1,bilinmiyor,bilinmiyor,yok,var,var,yok,yok,yok,yok,yok,yok,yok,yok,yok,yok,yok,yok,yok,yok,yok,yok,yok,yok,yok,yok,yok,yok,yok,yok,yok,yok,yok,kademe_6,bilinmiyor,normal,bilinmiyor,100_125_m2,4_oda,alcak_1_3_kat,1_banyo,yok,yok,yok,dusuk,yok,yok,yok,2_3_Milyon_TL_Arasi
Diyarbakir,Baglar,Satilik,1_5_arasi,7,Kombi,bilinmiyor,yok,var,var,var,yok,yok,yok,yok,yok,yok,yok,yok,yok,yok,yok,yok,yok,yok,yok,yok,yok,yok,yok,yok,yok,yok,yok,yok,yok,yok,kademe_6,iyi,normal,bilinmiyor,150_200_m2,4_oda,yuksek_8_15_kat,2_banyo,yok,yok,yok,dusuk,yok,dusuk,yok,5_7_Bucuk_Milyon_TL_Arasi
Mardin,Artuklu,Satilik,0,6,Kombi,bilinmiyor,yok,var,yok,var,var,yok,yok,yok,var,yok,var,yok,yok,yok,yok,yok,yok,yok,yok,yok,yok,yok,var,yok,yok,var,yok,yok,yok,yok,kademe_6,bilinmiyor,normal,iyi,50_75_m2,2_oda,orta_4_7_kat,1_banyo,dusuk,yok,yok,orta,orta,yuksek,yok,1_5_Milyon_TL_Alti
Van,Edremit,Satilik,0,Bahce,Kombi,bilinmiyor,yok,yok,yok,var,yok,var,var,var,var,yok,var,var,yok,var,yok,yok,yok,yok,yok,yok,yok,yok,yok,var,yok,var,var,yok,yok,yok,kademe_6,iyi,bilinmiyor,iyi,300_m2_ve_ustu,6_oda,alcak_1_3_kat,3_banyo_ve_ustu,dusuk,dusuk,yok,dusuk,dusuk,yuksek,yok,10_Milyon_TL_Ustu
Diyarbakir,Kayapinar,Satilik,11_15_arasi,2,Kombi_Dogalgaz,bilinmiyor,yok,var,var,var,yok,yok,yok,yok,yok,yok,var,yok,yok,var,yok,yok,yok,var,yok,yok,yok,yok,yok,yok,yok,var,yok,yok,yok,yok,kademe_6,normal,normal,normal,150_200_m2,4_oda,yuksek_8_15_kat,1_banyo,dusuk,yok,yok,dusuk,orta,yuksek,yok,4_5_Milyon_TL_Arasi
Gumushane,Merkez,Satilik,26_30_arasi,5,Kombi,bilinmiyor,yok,var,yok,var,yok,yok,yok,yok,yok,yok,yok,yok,yok,yok,yok,yok,yok,yok,yok,yok,yok,yok,yok,yok,yok,yok,yok,yok,yok,yok,kademe_6,normal,normal,kotu,100_125_m2,3_oda,orta_4_7_kat,1_banyo,yok,yok,yok,yok,yok,dusuk,yok,2_3_Milyon_TL_Arasi
Mardin,Artuklu,Satilik,0,2,Kombi,bilinmiyor,yok,var,yok,var,yok,yok,yok,yok,yok,yok,yok,yok,yok,yok,yok,yok,yok,yok,yok,yok,yok,yok,var,yok,yok,var,yok,yok,yok,yok,kademe_6,normal,normal,bilinmiyor,100_125_m2,3_oda,yuksek_8_15_kat,2_banyo,yok,yok,yok,dusuk,yok,yok,yok,2_3_Milyon_TL_Arasi
Diyarbakir,Baglar,Satilik,1_5_arasi,1,Kombi,bilinmiyor,yok,var,yok,var,yok,yok,yok,yok,yok,yok,yok,yok,yok,yok,yok,yok,yok,yok,yok,yok,yok,yok,yok,yok,yok,yok,yok,yok,yok,yok,kademe_6,normal,normal,bilinmiyor,150_200_m2,4_oda,yuksek_8_15_kat,2_banyo,yok,yok,yok,dusuk,yok,yok,yok,5_7_Bucuk_Milyon_TL_Arasi
Igdir,Merkez,Satilik,11_15_arasi,3,Kombi,bilinmiyor,yok,var,var,yok,yok,yok,yok,yok,yok,yok,yok,yok,yok,yok,yok,yok,yok,yok,yok,yok,yok,yok,yok,yok,yok,yok,yok,yok,yok,yok,kademe_6,iyi,normal,normal,100_125_m2,3_oda,orta_4_7_kat,1_banyo,yok,yok,yok,dusuk,yok,yok,yok,2_3_Milyon_TL_Arasi
Mardin,Artuklu,Satilik,0,3,Kombi,bilinmiyor,yok,var,var,var,yok,yok,var,yok,yok,yok,yok,yok,yok,yok,yok,yok,yok,yok,var,yok,yok,yok,yok,yok,yok,var,yok,yok,yok,yok,kademe_6,iyi,normal,bilinmiyor,125_150_m2,3_oda,orta_4_7_kat,1_banyo,dusuk,yok,dusuk,dusuk,dusuk,orta,yok,3_4_Milyon_TL_Arasi
Van,Ipekyolu,Satilik,11_15_arasi,3,Kombi_Dogalgaz,bilinmiyor,yok,var,yok,var,yok,yok,yok,yok,yok,yok,yok,yok,yok,yok,yok,yok,yok,yok,yok,yok,yok,yok,yok,yok,yok,yok,yok,yok,yok,yok,kademe_6,normal,bilinmiyor,normal,100_125_m2,3_oda,orta_4_7_kat,1_banyo,yok,yok,yok,dusuk,yok,yok,yok,2_3_Milyon_TL_Arasi
Diyarbakir,Yenisehir,Satilik,0,4,Merkezi,bilinmiyor,yok,var,var,var,yok,yok,var,var,yok,yok,var,yok,yok,yok,yok,yok,yok,yok,yok,yok,yok,yok,yok,yok,yok,var,yok,yok,yok,yok,kademe_6,bilinmiyor,bilinmiyor,bilinmiyor,75_100_m2,3_oda,yuksek_8_15_kat,1_banyo,dusuk,yok,yok,orta,dusuk,orta,yok,3_4_Milyon_TL_Arasi
Mardin,Nusaybin,Satilik,11_15_arasi,2,isitma_yok,bilinmiyor,yok,var,yok,var,yok,var,yok,var,var,yok,yok,yok,yok,yok,yok,yok,yok,yok,yok,yok,yok,yok,yok,yok,yok,var,yok,yok,yok,yok,kademe_6,kotu,normal,bilinmiyor,150_200_m2,4_oda,orta_4_7_kat,1_banyo,yok,yok,yok,orta,orta,orta,yok,4_5_Milyon_TL_Arasi
Adiyaman,Merkez,Satilik,1_5_arasi,3,Merkezi,bilinmiyor,yok,var,yok,var,yok,yok,var,yok,var,yok,var,yok,yok,yok,yok,yok,yok,yok,yok,yok,yok,yok,yok,yok,yok,yok,yok,yok,yok,yok,kademe_6,bilinmiyor,bilinmiyor,bilinmiyor,100_125_m2,4_oda,orta_4_7_kat,1_banyo,yok,yok,yok,dusuk,dusuk,dusuk,yok,2_3_Milyon_TL_Arasi
Mardin,Artuklu,Satilik,1_5_arasi,9,Kombi,bilinmiyor,yok,var,var,var,yok,var,yok,var,yok,yok,var,yok,yok,var,yok,yok,yok,yok,yok,yok,yok,yok,var,yok,yok,var,var,yok,yok,yok,kademe_6,normal,normal,normal,150_200_m2,4_oda,yuksek_8_15_kat,1_banyo,dusuk,dusuk,yok,orta,orta,yuksek,yok,4_5_Milyon_TL_Arasi
Bingol,Merkez,Satilik,0,1,Kombi,bilinmiyor,yok,var,var,var,yok,yok,yok,yok,yok,yok,yok,yok,yok,yok,yok,yok,yok,yok,yok,yok,yok,yok,yok,yok,yok,yok,yok,yok,yok,yok,kademe_6,iyi,normal,kotu,125_150_m2,4_oda,orta_4_7_kat,1_banyo,yok,yok,yok,dusuk,dusuk,yok,yok,3_4_Milyon_TL_Arasi
Mardin,Kiziltepe,Satilik,1_5_arasi,1,bilinmiyor,bilinmiyor,yok,var,var,var,yok,yok,yok,yok,yok,yok,yok,yok,yok,yok,yok,yok,yok,yok,yok,yok,yok,yok,yok,yok,yok,yok,yok,yok,yok,yok,kademe_6,bilinmiyor,bilinmiyor,bilinmiyor,200_300_m2,5_oda,alcak_1_3_kat,1_banyo,yok,yok,yok,dusuk,yok,yok,yok,4_5_Milyon_TL_Arasi
Diyarbakir,Kayapinar,Satilik,11_15_arasi,14,Merkezi,bilinmiyor,yok,var,yok,var,yok,yok,yok,yok,yok,yok,yok,yok,yok,yok,yok,yok,yok,yok,yok,yok,yok,yok,yok,yok,yok,yok,yok,yok,yok,yok,kademe_6,normal,iyi,normal,150_200_m2,5_oda,yuksek_8_15_kat,1_banyo,yok,yok,yok,dusuk,yok,yok,yok,4_5_Milyon_TL_Arasi
Batman,Merkez,Satilik,1_5_arasi,2,Yerden_Isitma,bilinmiyor,yok,var,yok,var,yok,yok,yok,yok,yok,yok,yok,yok,yok,yok,yok,yok,yok,yok,yok,yok,yok,yok,yok,yok,yok,yok,yok,yok,yok,yok,kademe_6,bilinmiyor,bilinmiyor,bilinmiyor,125_150_m2,4_oda,orta_4_7_kat,1_banyo,yok,yok,yok,dusuk,yok,yok,yok,3_4_Milyon_TL_Arasi
Mardin,Midyat,Satilik,1_5_arasi,En_Ust_Kat,Kombi_Dogalgaz,bilinmiyor,yok,var,var,var,yok,yok,var,yok,var,yok,var,var,yok,var,yok,yok,yok,var,yok,yok,yok,yok,yok,yok,yok,var,yok,yok,yok,yok,kademe_6,normal,normal,normal,150_200_m2,4_oda,orta_4_7_kat,2_banyo,orta,yok,yok,orta,yuksek,yuksek,yok,3_4_Milyon_TL_Arasi
Van,Ercis,Satilik,21_25_arasi,En_Ust_Kat,Dogalgaz_Sobasi,bilinmiyor,yok,var,var,var,yok,yok,var,yok,yok,yok,var,yok,yok,var,yok,yok,yok,yok,yok,yok,yok,yok,yok,yok,yok,var,yok,yok,yok,yok,kademe_6,normal,normal,bilinmiyor,100_125_m2,3_oda,orta_4_7_kat,1_banyo,yok,yok,yok,dusuk,yok,yuksek,yok,1_5_2_Milyon_TL_Arasi
Mardin,Artuklu,Satilik,6_10_arasi,5,Kombi_Dogalgaz,bilinmiyor,yok,var,var,var,yok,yok,yok,var,var,yok,yok,yok,yok,yok,yok,yok,yok,yok,yok,yok,yok,yok,yok,yok,yok,yok,yok,yok,yok,yok,kademe_6,iyi,normal,bilinmiyor,150_200_m2,4_oda,orta_4_7_kat,1_banyo,yok,yok,yok,dusuk,yok,yok,yok,3_4_Milyon_TL_Arasi
Batman,Merkez,Satilik,6_10_arasi,Giris,Kombi,bilinmiyor,yok,var,yok,var,yok,yok,var,var,yok,yok,var,yok,yok,yok,yok,yok,yok,yok,yok,yok,yok,yok,yok,yok,yok,var,yok,yok,yok,yok,kademe_6,normal,normal,bilinmiyor,125_150_m2,4_oda,yuksek_8_15_kat,1_banyo,yok,yok,yok,dusuk,orta,yuksek,yok,1_5_2_Milyon_TL_Arasi
Van,Ipekyolu,Satilik,0,3,Yerden_Isitma,bilinmiyor,yok,var,var,yok,yok,var,yok,yok,var,yok,var,yok,yok,var,yok,yok,yok,yok,yok,yok,yok,yok,var,yok,yok,yok,yok,yok,yok,yok,kademe_6,normal,bilinmiyor,bilinmiyor,100_125_m2,3_oda,orta_4_7_kat,1_banyo,dusuk,yok,dusuk,orta,orta,yuksek,yok,3_4_Milyon_TL_Arasi
Van,Ipekyolu,Satilik,11_15_arasi,Zemin,Kombi,bilinmiyor,yok,yok,yok,var,yok,var,yok,var,yok,yok,yok,yok,yok,yok,yok,yok,yok,yok,yok,yok,yok,yok,yok,yok,yok,yok,yok,yok,yok,yok,kademe_6,iyi,bilinmiyor,kotu,50_75_m2,2_oda,orta_4_7_kat,1_banyo,yok,yok,yok,dusuk,yok,yok,yok,1_5_Milyon_TL_Alti
Mardin,Artuklu,Satilik,6_10_arasi,5,Kombi,bilinmiyor,yok,var,var,var,yok,yok,yok,yok,yok,yok,var,var,yok,var,yok,yok,yok,yok,yok,yok,yok,yok,var,yok,yok,var,yok,yok,yok,yok,kademe_6,normal,normal,bilinmiyor,200_300_m2,5_oda,yuksek_8_15_kat,2_banyo,dusuk,yok,yok,dusuk,orta,yuksek,yok,4_5_Milyon_TL_Arasi
Batman,Merkez,Satilik,11_15_arasi,3,Kombi,bilinmiyor,yok,var,yok,yok,var,yok,yok,yok,yok,yok,yok,yok,yok,yok,yok,yok,yok,yok,yok,yok,yok,yok,yok,yok,yok,yok,yok,yok,yok,yok,kademe_6,kotu,bilinmiyor,bilinmiyor,0_50_m2,2_oda,orta_4_7_kat,1_banyo,yok,yok,yok,dusuk,yok,yok,yok,1_5_Milyon_TL_Alti
Van,Ipekyolu,Satilik,0,1,Yerden_Isitma,bilinmiyor,yok,var,var,var,yok,yok,var,yok,var,yok,var,yok,yok,var,yok,yok,yok,yok,yok,yok,yok,yok,var,yok,yok,var,yok,yok,yok,yok,kademe_6,normal,bilinmiyor,bilinmiyor,100_125_m2,3_oda,orta_4_7_kat,1_banyo,dusuk,yok,yok,orta,orta,yuksek,yok,3_4_Milyon_TL_Arasi
Mus,Merkez,Satilik,16_20_arasi,2,Kombi,bilinmiyor,yok,var,yok,var,yok,yok,yok,yok,yok,yok,yok,yok,yok,yok,yok,yok,yok,yok,yok,yok,yok,yok,yok,yok,yok,yok,yok,yok,yok,yok,kademe_6,bilinmiyor,bilinmiyor,bilinmiyor,150_200_m2,4_oda,yuksek_8_15_kat,1_banyo,yok,yok,yok,yok,yok,yok,yok,2_3_Milyon_TL_Arasi
Van,Ipekyolu,Satilik,1_5_arasi,2,Kombi_Dogalgaz,bilinmiyor,yok,var,yok,var,var,yok,var,yok,yok,yok,yok,yok,yok,yok,yok,yok,yok,yok,yok,yok,yok,yok,yok,yok,yok,yok,yok,yok,yok,yok,kademe_6,bilinmiyor,normal,bilinmiyor,50_75_m2,2_oda,orta_4_7_kat,1_banyo,yok,yok,yok,dusuk,yok,yok,yok,2_3_Milyon_TL_Arasi
Batman,Merkez,Satilik,6_10_arasi,2,Kombi,bilinmiyor,yok,var,yok,var,yok,yok,yok,yok,yok,yok,yok,yok,yok,yok,yok,yok,yok,yok,yok,yok,yok,yok,yok,yok,yok,yok,yok,yok,yok,yok,kademe_6,bilinmiyor,normal,normal,75_100_m2,3_oda,orta_4_7_kat,1_banyo,yok,yok,yok,dusuk,yok,yok,yok,2_3_Milyon_TL_Arasi
Diyarbakir,Kayapinar,Satilik,16_20_arasi,7,Kat_Kaloriferi,bilinmiyor,yok,var,var,var,yok,yok,var,yok,var,yok,var,yok,yok,yok,yok,yok,yok,yok,yok,yok,yok,yok,yok,yok,yok,var,yok,yok,yok,yok,kademe_6,normal,bilinmiyor,normal,150_200_m2,4_oda,yuksek_8_15_kat,1_banyo,yok,yok,dusuk,dusuk,orta,orta,yok,3_4_Milyon_TL_Arasi
Van,Ipekyolu,Satilik,6_10_arasi,3,Kombi,bilinmiyor,yok,var,var,var,yok,yok,var,yok,var,yok,yok,yok,yok,yok,yok,yok,yok,yok,yok,yok,yok,yok,yok,yok,yok,var,yok,yok,yok,yok,kademe_6,bilinmiyor,bilinmiyor,bilinmiyor,150_200_m2,4_oda,orta_4_7_kat,1_banyo,yok,yok,yok,dusuk,dusuk,dusuk,yok,4_5_Milyon_TL_Arasi
Mardin,Kiziltepe,Satilik,11_15_arasi,1,bilinmiyor,bilinmiyor,yok,var,var,yok,yok,yok,yok,yok,yok,yok,yok,yok,yok,yok,yok,yok,yok,yok,yok,yok,yok,yok,yok,yok,yok,yok,yok,yok,yok,yok,kademe_6,bilinmiyor,bilinmiyor,bilinmiyor,125_150_m2,4_oda,alcak_1_3_kat,1_banyo,yok,yok,yok,dusuk,yok,yok,yok,2_3_Milyon_TL_Arasi
Van,Ipekyolu,Satilik,0,2,Kombi_Dogalgaz,bilinmiyor,yok,var,var,var,yok,var,yok,yok,var,yok,var,yok,yok,var,yok,yok,yok,yok,yok,yok,yok,yok,yok,yok,yok,var,yok,yok,yok,yok,kademe_6,kotu,normal,bilinmiyor,75_100_m2,3_oda,orta_4_7_kat,1_banyo,dusuk,yok,yok,dusuk,yok,yuksek,yok,3_4_Milyon_TL_Arasi
Mardin,Derik,Satilik,6_10_arasi,bilinmiyor,Gunes_Enerjisi,bilinmiyor,yok,var,yok,yok,yok,var,var,var,var,yok,var,yok,yok,var,yok,yok,yok,yok,yok,yok,yok,yok,var,yok,yok,yok,yok,yok,yok,yok,kademe_6,bilinmiyor,bilinmiyor,bilinmiyor,200_300_m2,4_oda,alcak_1_3_kat,1_banyo,yok,dusuk,yok,dusuk,yok,yuksek,yok,1_5_Milyon_TL_Alti
Agri,Merkez,Satilik,1_5_arasi,1,bilinmiyor,bilinmiyor,yok,var,var,var,yok,yok,yok,yok,yok,yok,yok,yok,yok,yok,yok,yok,yok,yok,yok,yok,yok,yok,yok,yok,yok,yok,yok,yok,yok,yok,kademe_6,bilinmiyor,bilinmiyor,bilinmiyor,150_200_m2,4_oda,alcak_1_3_kat,2_banyo,yok,yok,yok,dusuk,yok,yok,yok,3_4_Milyon_TL_Arasi
Van,Ipekyolu,Satilik,6_10_arasi,2,Kombi,bilinmiyor,yok,var,var,var,yok,var,yok,var,yok,yok,var,var,yok,var,yok,yok,yok,yok,yok,yok,yok,yok,var,yok,yok,var,yok,yok,yok,yok,kademe_6,iyi,bilinmiyor,kotu,150_200_m2,4_oda,yuksek_8_15_kat,2_banyo,dusuk,yok,dusuk,orta,orta,orta,yok,4_5_Milyon_TL_Arasi
Van,Ipekyolu,Satilik,1_5_arasi,3,Kombi_Dogalgaz,bilinmiyor,yok,var,var,var,yok,var,yok,yok,var,yok,var,yok,yok,yok,yok,yok,yok,var,yok,yok,yok,yok,yok,yok,yok,yok,yok,yok,yok,yok,kademe_6,iyi,bilinmiyor,bilinmiyor,50_75_m2,2_oda,orta_4_7_kat,1_banyo,dusuk,yok,yok,dusuk,orta,yuksek,yok,2_3_Milyon_TL_Arasi
Van,Ipekyolu,Satilik,21_25_arasi,4,Kombi_Dogalgaz,bilinmiyor,yok,yok,yok,yok,yok,yok,yok,yok,yok,yok,yok,yok,yok,yok,yok,yok,yok,yok,yok,yok,yok,yok,yok,yok,yok,yok,yok,yok,yok,yok,kademe_6,iyi,normal,normal,150_200_m2,4_oda,orta_4_7_kat,1_banyo,yok,yok,yok,dusuk,yok,yok,yok,3_4_Milyon_TL_Arasi
Siirt,Merkez,Satilik,31_ve_uzeri,1,bilinmiyor,bilinmiyor,yok,var,yok,yok,yok,yok,yok,yok,yok,yok,yok,yok,yok,yok,yok,yok,yok,yok,yok,yok,yok,yok,yok,yok,yok,yok,yok,yok,yok,yok,kademe_6,bilinmiyor,bilinmiyor,bilinmiyor,50_75_m2,1_oda,alcak_1_3_kat,1_banyo,yok,yok,yok,dusuk,yok,yok,yok,1_5_Milyon_TL_Alti
Mardin,Artuklu,Satilik,31_ve_uzeri,bilinmiyor,Soba,bilinmiyor,yok,var,yok,yok,var,var,var,var,yok,yok,yok,yok,yok,yok,yok,yok,yok,yok,yok,yok,yok,yok,var,yok,yok,yok,var,yok,yok,yok,kademe_6,bilinmiyor,kotu,bilinmiyor,300_m2_ve_ustu,6_oda,alcak_1_3_kat,2_banyo,yok,yok,yok,dusuk,dusuk,yuksek,yok,10_Milyon_TL_Ustu
Van,Ipekyolu,Satilik,0,2,Kombi_Dogalgaz,bilinmiyor,yok,var,var,var,yok,yok,yok,var,yok,yok,var,yok,yok,yok,yok,yok,yok,yok,yok,yok,yok,yok,yok,yok,yok,var,yok,yok,yok,yok,kademe_6,iyi,normal,bilinmiyor,100_125_m2,3_oda,orta_4_7_kat,1_banyo,orta,yok,yok,orta,orta,yuksek,yok,3_4_Milyon_TL_Arasi
Mardin,Midyat,Satilik,6_10_arasi,Ara_Kat,Kombi_Dogalgaz,bilinmiyor,yok,var,yok,var,yok,var,yok,var,yok,yok,var,yok,yok,var,yok,yok,yok,yok,yok,yok,yok,yok,yok,yok,yok,var,yok,yok,yok,yok,kademe_6,iyi,normal,kotu,125_150_m2,3_oda,orta_4_7_kat,1_banyo,yok,yok,yok,orta,orta,yuksek,yok,3_4_Milyon_TL_Arasi
Diyarbakir,Yenisehir,Satilik,6_10_arasi,6,Merkezi,bilinmiyor,yok,var,var,var,yok,var,yok,yok,var,yok,var,yok,yok,var,yok,yok,yok,var,yok,yok,yok,yok,var,yok,yok,var,yok,yok,yok,yok,kademe_6,kotu,normal,normal,100_125_m2,4_oda,orta_4_7_kat,1_banyo,dusuk,yok,dusuk,dusuk,orta,yuksek,yok,4_5_Milyon_TL_Arasi
Van,Tusba,Satilik,0,bilinmiyor,bilinmiyor,bilinmiyor,yok,yok,yok,yok,yok,yok,yok,yok,yok,yok,yok,yok,yok,yok,yok,yok,yok,yok,yok,yok,yok,yok,yok,yok,yok,var,var,yok,yok,yok,kademe_6,bilinmiyor,bilinmiyor,bilinmiyor,125_150_m2,6_oda,alcak_1_3_kat,2_banyo,yok,yok,yok,dusuk,yok,yok,yok,7_Bucuk_10_Milyon_TL_Arasi
Van,Ipekyolu,Satilik,1_5_arasi,4,Kombi,bilinmiyor,yok,var,var,var,yok,var,yok,var,yok,yok,yok,yok,yok,yok,yok,yok,yok,yok,yok,yok,yok,yok,yok,yok,yok,yok,yok,yok,yok,yok,kademe_6,iyi,normal,kotu,150_200_m2,4_oda,orta_4_7_kat,1_banyo,yok,yok,yok,dusuk,yok,yok,yok,4_5_Milyon_TL_Arasi
Van,Ipekyolu,Satilik,6_10_arasi,3,Kombi_Dogalgaz,bilinmiyor,yok,var,var,var,yok,var,var,yok,var,yok,var,var,yok,var,yok,yok,yok,var,yok,yok,yok,yok,yok,yok,yok,var,yok,yok,yok,yok,kademe_6,normal,normal,bilinmiyor,150_200_m2,4_oda,orta_4_7_kat,2_banyo,dusuk,yok,yok,orta,yuksek,yuksek,yok,5_7_Bucuk_Milyon_TL_Arasi
Diyarbakir,Kayapinar,Satilik,6_10_arasi,1,bilinmiyor,bilinmiyor,yok,yok,yok,yok,yok,yok,yok,yok,yok,yok,yok,yok,yok,yok,yok,yok,yok,yok,yok,yok,yok,yok,yok,yok,yok,yok,yok,yok,yok,yok,kademe_6,bilinmiyor,bilinmiyor,bilinmiyor,125_150_m2,4_oda,alcak_1_3_kat,2_banyo,yok,yok,yok,dusuk,yok,yok,yok,5_7_Bucuk_Milyon_TL_Arasi
Mardin,Kiziltepe,Satilik,6_10_arasi,1,bilinmiyor,bilinmiyor,yok,yok,yok,yok,yok,yok,yok,yok,yok,yok,yok,yok,yok,yok,yok,yok,yok,yok,yok,yok,yok,yok,yok,yok,yok,yok,yok,yok,yok,yok,kademe_6,bilinmiyor,bilinmiyor,bilinmiyor,150_200_m2,6_oda,alcak_1_3_kat,1_banyo,yok,yok,yok,dusuk,yok,yok,yok,5_7_Bucuk_Milyon_TL_Arasi
Bingol,Merkez,Satilik,16_20_arasi,4,Kombi,bilinmiyor,yok,var,yok,var,yok,yok,yok,yok,yok,yok,yok,yok,yok,yok,yok,yok,yok,yok,yok,yok,yok,yok,yok,yok,yok,yok,yok,yok,yok,yok,kademe_6,normal,normal,bilinmiyor,100_125_m2,4_oda,orta_4_7_kat,1_banyo,yok,yok,yok,dusuk,yok,yok,yok,2_3_Milyon_TL_Arasi
Mardin,Kiziltepe,Satilik,11_15_arasi,Ara_Kat,Kombi_Dogalgaz,bilinmiyor,yok,var,var,yok,yok,yok,yok,yok,yok,yok,yok,yok,yok,yok,yok,yok,yok,yok,yok,yok,yok,yok,yok,yok,yok,yok,yok,yok,yok,yok,kademe_6,normal,normal,normal,300_m2_ve_ustu,4_oda,orta_4_7_kat,2_banyo,yok,yok,yok,dusuk,dusuk,yok,yok,1_5_2_Milyon_TL_Arasi
Adiyaman,Merkez,Satilik,0,4,Kombi_Dogalgaz,bilinmiyor,yok,var,var,var,yok,yok,yok,yok,yok,yok,var,var,yok,var,yok,yok,yok,yok,yok,yok,yok,yok,yok,yok,yok,yok,yok,yok,yok,yok,kademe_6,normal,bilinmiyor,bilinmiyor,125_150_m2,4_oda,orta_4_7_kat,1_banyo,dusuk,yok,yok,orta,orta,yuksek,yok,4_5_Milyon_TL_Arasi
Bitlis,Merkez,Satilik,1_5_arasi,1,bilinmiyor,bilinmiyor,yok,var,var,var,yok,yok,yok,yok,yok,yok,yok,yok,yok,yok,yok,yok,yok,yok,yok,yok,yok,yok,yok,yok,yok,yok,yok,yok,yok,yok,kademe_6,bilinmiyor,bilinmiyor,bilinmiyor,50_75_m2,3_oda,alcak_1_3_kat,1_banyo,yok,yok,yok,dusuk,yok,yok,yok,1_5_Milyon_TL_Alti
Adiyaman,Merkez,Satilik,6_10_arasi,3,Kombi,bilinmiyor,yok,var,yok,var,var,yok,var,var,yok,yok,var,yok,yok,yok,yok,yok,yok,yok,yok,yok,yok,yok,yok,yok,yok,var,yok,yok,yok,yok,kademe_6,normal,normal,kotu,50_75_m2,2_oda,orta_4_7_kat,1_banyo,yok,yok,yok,dusuk,orta,yuksek,yok,1_5_2_Milyon_TL_Arasi
Diyarbakir,Baglar,Satilik,0,3,Kombi,bilinmiyor,yok,var,yok,var,yok,yok,yok,var,yok,yok,var,yok,yok,yok,yok,yok,yok,yok,yok,yok,yok,yok,yok,yok,yok,var,yok,yok,yok,yok,kademe_6,normal,normal,bilinmiyor,75_100_m2,3_oda,yuksek_8_15_kat,1_banyo,dusuk,yok,dusuk,dusuk,orta,orta,yok,3_4_Milyon_TL_Arasi
Mardin,Artuklu,Satilik,1_5_arasi,6,Kombi_Dogalgaz,bilinmiyor,yok,var,var,var,yok,yok,var,var,yok,yok,var,yok,yok,yok,yok,yok,yok,yok,yok,yok,yok,yok,yok,yok,yok,var,yok,yok,yok,yok,kademe_6,normal,normal,iyi,75_100_m2,4_oda,orta_4_7_kat,1_banyo,dusuk,yok,yok,dusuk,dusuk,yuksek,yok,2_3_Milyon_TL_Arasi
Batman,Merkez,Satilik,0,3,Yerden_Isitma,bilinmiyor,yok,var,yok,yok,yok,yok,var,yok,yok,yok,var,var,yok,var,yok,yok,yok,yok,yok,yok,yok,yok,var,yok,yok,var,yok,yok,yok,yok,kademe_6,iyi,normal,bilinmiyor,100_125_m2,3_oda,orta_4_7_kat,2_banyo,dusuk,dusuk,dusuk,dusuk,yuksek,yuksek,yok,5_7_Bucuk_Milyon_TL_Arasi
Van,Tusba,Satilik,11_15_arasi,En_Ust_Kat,Kombi_Dogalgaz,bilinmiyor,yok,var,yok,var,yok,var,var,var,yok,yok,var,yok,yok,var,yok,yok,yok,yok,yok,yok,yok,yok,yok,var,yok,yok,yok,yok,yok,yok,kademe_6,kotu,kotu,bilinmiyor,100_125_m2,4_oda,orta_4_7_kat,1_banyo,yok,yok,yok,dusuk,yok,orta,yok,2_3_Milyon_TL_Arasi
Mardin,Artuklu,Satilik,0,bilinmiyor,Kombi,bilinmiyor,yok,yok,yok,yok,yok,yok,yok,yok,yok,yok,yok,yok,yok,yok,yok,yok,yok,yok,yok,yok,yok,yok,yok,yok,yok,yok,yok,yok,yok,yok,kademe_6,normal,kotu,bilinmiyor,100_125_m2,4_oda,alcak_1_3_kat,1_banyo,yok,yok,yok,dusuk,yok,yok,yok,1_5_Milyon_TL_Alti
Mardin,Artuklu,Satilik,1_5_arasi,10,Kombi,bilinmiyor,yok,var,var,var,yok,yok,var,yok,var,yok,var,yok,yok,yok,yok,yok,yok,yok,yok,yok,yok,yok,var,yok,yok,yok,yok,yok,yok,yok,kademe_6,normal,normal,bilinmiyor,125_150_m2,4_oda,yuksek_8_15_kat,1_banyo,dusuk,yok,dusuk,dusuk,orta,yuksek,yok,3_4_Milyon_TL_Arasi
Gumushane,Merkez,Satilik,6_10_arasi,1,bilinmiyor,bilinmiyor,yok,var,yok,var,yok,yok,yok,yok,yok,yok,yok,yok,yok,yok,yok,yok,yok,yok,yok,yok,yok,yok,yok,yok,yok,yok,yok,yok,yok,yok,kademe_6,bilinmiyor,bilinmiyor,bilinmiyor,125_150_m2,4_oda,alcak_1_3_kat,2_banyo,yok,yok,yok,dusuk,yok,yok,yok,3_4_Milyon_TL_Arasi
Mardin,Artuklu,Satilik,0,9,Kombi_Dogalgaz,bilinmiyor,yok,var,yok,var,yok,var,var,var,var,yok,yok,yok,yok,yok,yok,yok,yok,yok,yok,yok,yok,yok,yok,yok,yok,yok,yok,yok,yok,yok,kademe_6,bilinmiyor,normal,bilinmiyor,100_125_m2,3_oda,yuksek_8_15_kat,2_banyo,yok,yok,yok,yok,yok,yok,yok,3_4_Milyon_TL_Arasi
Mardin,Kiziltepe,Satilik,11_15_arasi,6,bilinmiyor,bilinmiyor,yok,var,var,var,yok,yok,yok,yok,yok,yok,yok,yok,yok,yok,yok,yok,yok,yok,yok,yok,yok,yok,yok,yok,yok,yok,yok,yok,yok,yok,kademe_6,bilinmiyor,bilinmiyor,bilinmiyor,100_125_m2,3_oda,orta_4_7_kat,1_banyo,yok,yok,yok,dusuk,yok,yok,yok,1_5_2_Milyon_TL_Arasi
Mardin,Artuklu,Satilik,11_15_arasi,11,Kombi,bilinmiyor,yok,yok,yok,yok,yok,yok,yok,yok,yok,yok,yok,yok,yok,yok,yok,yok,yok,yok,yok,yok,yok,yok,yok,yok,yok,yok,yok,yok,yok,yok,kademe_6,bilinmiyor,bilinmiyor,bilinmiyor,200_300_m2,5_oda,cok_yuksek_16_ustu_kat,1_banyo,yok,yok,yok,dusuk,yok,yok,yok,4_5_Milyon_TL_Arasi
Van,Ipekyolu,Satilik,1_5_arasi,Yuksek_Giris,Yerden_Isitma,bilinmiyor,yok,var,var,var,yok,yok,var,var,yok,yok,var,var,yok,var,var,yok,yok,yok,var,yok,yok,yok,var,yok,yok,var,yok,yok,yok,yok,kademe_6,normal,normal,bilinmiyor,200_300_m2,5_oda,yuksek_8_15_kat,2_banyo,dusuk,orta,orta,orta,yuksek,yuksek,yok,5_7_Bucuk_Milyon_TL_Arasi
Van,Ipekyolu,Satilik,0,3,Kombi_Dogalgaz,bilinmiyor,yok,var,yok,yok,yok,var,var,yok,var,yok,yok,yok,yok,yok,yok,yok,yok,yok,yok,yok,yok,yok,yok,yok,yok,yok,yok,yok,yok,yok,kademe_6,iyi,bilinmiyor,bilinmiyor,50_75_m2,2_oda,orta_4_7_kat,1_banyo,yok,yok,yok,dusuk,yok,yok,yok,2_3_Milyon_TL_Arasi
Mardin,Artuklu,Satilik,21_25_arasi,bilinmiyor,Soba,bilinmiyor,yok,var,yok,yok,yok,yok,var,var,yok,yok,yok,yok,yok,yok,yok,yok,yok,yok,yok,yok,yok,yok,yok,yok,yok,yok,yok,yok,yok,yok,kademe_6,bilinmiyor,kotu,bilinmiyor,200_300_m2,4_oda,alcak_1_3_kat,1_banyo,yok,yok,yok,dusuk,yok,dusuk,yok,2_3_Milyon_TL_Arasi
Van,Tusba,Satilik,6_10_arasi,1,bilinmiyor,bilinmiyor,yok,var,yok,yok,yok,yok,yok,yok,yok,yok,yok,yok,yok,yok,yok,yok,yok,yok,yok,yok,yok,yok,yok,yok,yok,yok,yok,yok,yok,yok,kademe_6,bilinmiyor,bilinmiyor,bilinmiyor,125_150_m2,4_oda,alcak_1_3_kat,1_banyo,yok,yok,yok,dusuk,yok,yok,yok,4_5_Milyon_TL_Arasi
Kars,Sarikamis,Satilik,1_5_arasi,3,Kombi_Dogalgaz,bilinmiyor,yok,yok,var,yok,var,var,yok,yok,var,yok,yok,yok,yok,yok,yok,yok,yok,yok,yok,yok,yok,yok,yok,yok,yok,yok,yok,yok,yok,yok,kademe_6,kotu,bilinmiyor,kotu,0_50_m2,2_oda,orta_4_7_kat,1_banyo,yok,yok,yok,dusuk,yok,yok,yok,1_5_2_Milyon_TL_Arasi
Gumushane,Merkez,Satilik,6_10_arasi,1,bilinmiyor,bilinmiyor,yok,var,yok,var,yok,yok,yok,yok,yok,yok,yok,yok,yok,yok,yok,yok,yok,yok,yok,yok,yok,yok,yok,yok,yok,yok,yok,yok,yok,yok,kademe_6,bilinmiyor,bilinmiyor,bilinmiyor,100_125_m2,4_oda,alcak_1_3_kat,2_banyo,yok,yok,yok,dusuk,yok,yok,yok,3_4_Milyon_TL_Arasi
Van,Ipekyolu,Satilik,16_20_arasi,5,Kombi,bilinmiyor,yok,var,var,var,yok,var,yok,yok,var,yok,yok,yok,yok,yok,yok,yok,yok,yok,yok,yok,yok,yok,yok,yok,yok,yok,yok,yok,yok,yok,kademe_6,normal,kotu,bilinmiyor,150_200_m2,4_oda,orta_4_7_kat,1_banyo,yok,yok,yok,dusuk,yok,yok,yok,3_4_Milyon_TL_Arasi
Mardin,Kiziltepe,Satilik,11_15_arasi,2,Kombi,bilinmiyor,yok,yok,yok,var,yok,yok,yok,yok,yok,yok,yok,yok,yok,yok,yok,yok,yok,yok,yok,yok,yok,yok,yok,yok,yok,yok,yok,yok,yok,yok,kademe_6,bilinmiyor,bilinmiyor,bilinmiyor,100_125_m2,4_oda,yuksek_8_15_kat,1_banyo,yok,yok,yok,dusuk,yok,yok,yok,1_5_2_Milyon_TL_Arasi
Batman,Merkez,Satilik,1_5_arasi,Bahce,Yerden_Isitma,bilinmiyor,yok,yok,var,yok,yok,yok,var,var,var,yok,var,var,yok,yok,yok,yok,yok,yok,yok,yok,yok,yok,yok,yok,yok,yok,yok,var,yok,yok,kademe_6,kotu,iyi,normal,150_200_m2,3_oda,orta_4_7_kat,2_banyo,yok,yok,yok,dusuk,orta,yuksek,yok,3_4_Milyon_TL_Arasi
Van,Ercis,Satilik,1_5_arasi,En_Ust_Kat,Kombi_Dogalgaz,bilinmiyor,yok,var,var,var,yok,yok,var,yok,var,yok,var,var,yok,yok,yok,yok,yok,var,yok,yok,yok,yok,yok,var,yok,yok,var,yok,yok,yok,kademe_6,normal,normal,bilinmiyor,200_300_m2,6_oda,orta_4_7_kat,2_banyo,dusuk,dusuk,yok,orta,dusuk,yuksek,yok,7_Bucuk_10_Milyon_TL_Arasi
Adiyaman,Merkez,Satilik,0,2,Kombi_Dogalgaz,bilinmiyor,yok,yok,yok,var,yok,yok,yok,yok,yok,yok,yok,yok,yok,yok,yok,yok,yok,yok,yok,yok,yok,yok,yok,yok,yok,yok,yok,yok,yok,yok,kademe_6,kotu,bilinmiyor,kotu,100_125_m2,3_oda,orta_4_7_kat,1_banyo,yok,yok,yok,dusuk,yok,yok,yok,3_4_Milyon_TL_Arasi
Mardin,Artuklu,Satilik,0,4,Kombi,bilinmiyor,yok,var,yok,var,yok,var,yok,var,yok,yok,var,yok,yok,yok,yok,yok,yok,yok,yok,yok,yok,yok,var,yok,yok,var,yok,yok,yok,yok,kademe_6,kotu,normal,bilinmiyor,75_100_m2,3_oda,yuksek_8_15_kat,1_banyo,dusuk,yok,dusuk,orta,orta,yuksek,yok,2_3_Milyon_TL_Arasi
Agri,Merkez,Satilik,6_10_arasi,5,Kombi_Dogalgaz,bilinmiyor,yok,var,yok,var,yok,var,yok,yok,var,yok,var,yok,yok,yok,yok,yok,yok,yok,yok,yok,yok,yok,yok,yok,yok,yok,yok,yok,yok,yok,kademe_6,kotu,bilinmiyor,kotu,150_200_m2,4_oda,orta_4_7_kat,1_banyo,yok,yok,yok,dusuk,yok,orta,yok,2_3_Milyon_TL_Arasi
Van,Ipekyolu,Satilik,1_5_arasi,1,Kombi_Dogalgaz,bilinmiyor,yok,var,var,var,yok,yok,yok,yok,var,yok,var,yok,yok,var,yok,yok,yok,var,yok,yok,yok,yok,yok,yok,yok,var,yok,yok,yok,yok,kademe_6,iyi,normal,normal,50_75_m2,3_oda,orta_4_7_kat,1_banyo,orta,yok,yok,dusuk,orta,yuksek,yok,2_3_Milyon_TL_Arasi
Van,Ipekyolu,Satilik,6_10_arasi,5,Kombi_Dogalgaz,bilinmiyor,yok,var,var,var,yok,yok,yok,var,yok,yok,var,var,yok,yok,yok,yok,yok,yok,yok,yok,yok,yok,yok,yok,yok,yok,yok,yok,yok,yok,kademe_6,normal,normal,bilinmiyor,150_200_m2,4_oda,orta_4_7_kat,1_banyo,dusuk,yok,yok,dusuk,dusuk,dusuk,yok,4_5_Milyon_TL_Arasi
Diyarbakir,Yenisehir,Satilik,0,7,Yerden_Isitma,bilinmiyor,yok,var,var,var,yok,yok,var,yok,yok,yok,yok,yok,yok,yok,yok,yok,yok,yok,yok,yok,yok,yok,yok,yok,yok,yok,yok,yok,yok,yok,kademe_6,iyi,iyi,iyi,150_200_m2,4_oda,yuksek_8_15_kat,2_banyo,yok,yok,yok,dusuk,dusuk,yok,yok,10_Milyon_TL_Ustu
Mardin,Kiziltepe,Satilik,21_25_arasi,4,Soba,bilinmiyor,yok,yok,yok,yok,yok,yok,yok,yok,yok,yok,yok,yok,yok,yok,yok,yok,yok,yok,yok,yok,yok,yok,yok,yok,yok,yok,yok,yok,yok,yok,kademe_6,bilinmiyor,bilinmiyor,bilinmiyor,200_300_m2,4_oda,yuksek_8_15_kat,1_banyo,yok,yok,yok,dusuk,yok,yok,yok,1_5_2_Milyon_TL_Arasi
Van,Ipekyolu,Satilik,1_5_arasi,1,bilinmiyor,bilinmiyor,yok,var,yok,var,yok,yok,yok,yok,yok,yok,yok,yok,yok,yok,yok,yok,yok,yok,yok,yok,yok,yok,yok,yok,yok,yok,yok,yok,yok,yok,kademe_6,bilinmiyor,bilinmiyor,bilinmiyor,75_100_m2,3_oda,alcak_1_3_kat,1_banyo,yok,yok,yok,dusuk,yok,yok,yok,3_4_Milyon_TL_Arasi
Batman,Merkez,Satilik,16_20_arasi,4,Kombi,bilinmiyor,yok,var,yok,var,yok,yok,yok,yok,yok,yok,yok,yok,yok,yok,yok,yok,yok,yok,yok,yok,yok,yok,yok,yok,yok,yok,yok,yok,yok,yok,kademe_6,iyi,iyi,normal,200_300_m2,5_oda,orta_4_7_kat,2_banyo,yok,yok,yok,dusuk,yok,yok,yok,3_4_Milyon_TL_Arasi
Van,Ipekyolu,Satilik,6_10_arasi,3,Kombi,bilinmiyor,yok,yok,var,yok,yok,yok,var,yok,yok,yok,var,yok,yok,var,yok,yok,yok,yok,yok,yok,yok,yok,yok,yok,yok,var,yok,yok,yok,yok,kademe_6,normal,normal,bilinmiyor,100_125_m2,3_oda,orta_4_7_kat,1_banyo,dusuk,yok,dusuk,orta,yuksek,yuksek,yok,2_3_Milyon_TL_Arasi
Gumushane,Merkez,Satilik,21_25_arasi,Ara_Kat,Soba,bilinmiyor,yok,yok,yok,yok,yok,yok,yok,var,yok,yok,yok,yok,yok,yok,yok,yok,yok,yok,yok,yok,yok,yok,yok,yok,yok,yok,yok,yok,yok,yok,kademe_6,kotu,bilinmiyor,bilinmiyor,150_200_m2,4_oda,orta_4_7_kat,1_banyo,yok,yok,yok,dusuk,yok,yok,yok,1_5_2_Milyon_TL_Arasi
Batman,Merkez,Satilik,6_10_arasi,2,Kombi_Dogalgaz,bilinmiyor,yok,yok,yok,yok,var,yok,yok,yok,yok,yok,yok,yok,yok,yok,yok,yok,yok,yok,yok,yok,yok,yok,yok,yok,yok,yok,yok,yok,yok,yok,kademe_6,normal,normal,bilinmiyor,75_100_m2,2_oda,orta_4_7_kat,1_banyo,yok,yok,yok,dusuk,yok,yok,yok,1_5_2_Milyon_TL_Arasi
Mardin,Artuklu,Satilik,0,Yuksek_Giris,Kombi,bilinmiyor,yok,var,var,var,yok,var,yok,yok,var,yok,var,yok,yok,yok,yok,yok,yok,yok,yok,yok,yok,yok,var,yok,yok,yok,yok,yok,yok,yok,kademe_6,normal,normal,bilinmiyor,50_75_m2,2_oda,yuksek_8_15_kat,1_banyo,dusuk,yok,yok,dusuk,orta,yuksek,yok,1_5_Milyon_TL_Alti
Van,Ipekyolu,Satilik,11_15_arasi,5,Kombi_Dogalgaz,bilinmiyor,yok,var,yok,var,yok,var,yok,var,yok,yok,yok,yok,yok,yok,yok,yok,yok,yok,yok,yok,yok,yok,yok,yok,yok,yok,yok,yok,yok,yok,kademe_6,kotu,normal,kotu,100_125_m2,3_oda,orta_4_7_kat,1_banyo,yok,yok,yok,dusuk,yok,yok,yok,2_3_Milyon_TL_Arasi
Kars,Merkez,Satilik,16_20_arasi,2,Kombi,bilinmiyor,yok,var,var,yok,yok,yok,var,yok,var,yok,var,yok,yok,yok,yok,yok,yok,yok,yok,yok,yok,yok,yok,yok,yok,var,yok,yok,yok,yok,kademe_6,normal,kotu,bilinmiyor,150_200_m2,4_oda,orta_4_7_kat,2_banyo,dusuk,yok,yok,orta,orta,orta,yok,2_3_Milyon_TL_Arasi
Van,Ipekyolu,Satilik,11_15_arasi,6,Kombi,bilinmiyor,yok,var,yok,yok,yok,yok,var,var,yok,yok,var,yok,yok,var,yok,yok,yok,yok,yok,yok,yok,yok,var,yok,yok,var,yok,yok,yok,yok,kademe_6,normal,bilinmiyor,normal,150_200_m2,4_oda,yuksek_8_15_kat,1_banyo,yok,yok,dusuk,orta,orta,orta,yok,4_5_Milyon_TL_Arasi
Mardin,Artuklu,Satilik,0,1,Kombi,bilinmiyor,yok,var,var,var,yok,yok,var,yok,var,yok,var,yok,yok,yok,yok,yok,yok,yok,yok,yok,yok,yok,var,yok,yok,var,yok,yok,yok,yok,kademe_6,iyi,normal,bilinmiyor,50_75_m2,2_oda,orta_4_7_kat,1_banyo,dusuk,yok,yok,dusuk,orta,yuksek,yok,1_5_Milyon_TL_Alti
Van,Ipekyolu,Satilik,11_15_arasi,5,Kombi_Dogalgaz,bilinmiyor,yok,yok,yok,yok,yok,yok,yok,yok,yok,yok,yok,yok,yok,yok,yok,yok,yok,yok,yok,yok,yok,yok,yok,yok,yok,yok,yok,yok,yok,yok,kademe_6,iyi,iyi,kotu,150_200_m2,4_oda,yuksek_8_15_kat,1_banyo,yok,yok,yok,dusuk,dusuk,yok,yok,4_5_Milyon_TL_Arasi
Mardin,Kiziltepe,Satilik,16_20_arasi,1,bilinmiyor,bilinmiyor,yok,var,yok,yok,yok,yok,yok,yok,yok,yok,yok,yok,yok,yok,yok,yok,yok,yok,yok,yok,yok,yok,yok,yok,yok,yok,yok,yok,yok,yok,kademe_6,bilinmiyor,bilinmiyor,bilinmiyor,150_200_m2,4_oda,alcak_1_3_kat,1_banyo,yok,yok,yok,dusuk,yok,yok,yok,3_4_Milyon_TL_Arasi
Mardin,Artuklu,Satilik,0,7,Kombi,bilinmiyor,yok,var,yok,var,yok,yok,var,yok,var,yok,var,var,yok,yok,yok,yok,yok,yok,yok,yok,yok,yok,var,yok,yok,var,yok,yok,yok,yok,kademe_6,bilinmiyor,normal,bilinmiyor,150_200_m2,4_oda,yuksek_8_15_kat,2_banyo,dusuk,yok,yok,orta,yok,yuksek,yok,3_4_Milyon_TL_Arasi
Kars,Merkez,Satilik,0,Yuksek_Giris,Kombi_Dogalgaz,bilinmiyor,yok,yok,var,var,yok,var,yok,yok,yok,yok,var,yok,yok,yok,yok,yok,yok,yok,yok,yok,yok,yok,yok,yok,yok,var,yok,yok,yok,yok,kademe_6,normal,iyi,iyi,75_100_m2,3_oda,orta_4_7_kat,1_banyo,dusuk,yok,yok,dusuk,orta,yuksek,yok,2_3_Milyon_TL_Arasi
Batman,Merkez,Satilik,6_10_arasi,6,Kombi,bilinmiyor,yok,var,yok,var,yok,yok,yok,yok,yok,yok,yok,yok,yok,yok,yok,yok,yok,yok,yok,yok,yok,yok,yok,yok,yok,yok,yok,yok,yok,yok,kademe_6,normal,bilinmiyor,normal,100_125_m2,4_oda,yuksek_8_15_kat,1_banyo,yok,yok,yok,dusuk,yok,yok,yok,2_3_Milyon_TL_Arasi
Van,Ipekyolu,Satilik,0,4,Kombi,bilinmiyor,yok,var,yok,var,yok,yok,yok,yok,yok,yok,yok,yok,yok,yok,yok,yok,yok,yok,yok,yok,yok,yok,yok,yok,yok,yok,yok,yok,yok,yok,kademe_6,normal,bilinmiyor,bilinmiyor,75_100_m2,3_oda,orta_4_7_kat,1_banyo,yok,yok,yok,dusuk,yok,yok,yok,3_4_Milyon_TL_Arasi
Diyarbakir,Kayapinar,Satilik,6_10_arasi,1,Kombi_Dogalgaz,bilinmiyor,yok,yok,yok,var,yok,yok,yok,yok,yok,yok,yok,yok,yok,yok,yok,yok,yok,yok,yok,yok,yok,yok,yok,yok,yok,yok,yok,yok,yok,yok,kademe_6,normal,iyi,bilinmiyor,150_200_m2,5_oda,yuksek_8_15_kat,2_banyo,yok,yok,yok,dusuk,yok,yok,yok,5_7_Bucuk_Milyon_TL_Arasi
Van,Ipekyolu,Satilik,11_15_arasi,Bodrum,Kombi,bilinmiyor,yok,var,var,var,yok,var,yok,var,yok,yok,yok,yok,yok,yok,yok,yok,yok,yok,yok,yok,yok,yok,yok,yok,yok,yok,yok,yok,yok,yok,kademe_6,kotu,kotu,kotu,150_200_m2,4_oda,yuksek_8_15_kat,1_banyo,yok,yok,yok,dusuk,dusuk,dusuk,yok,2_3_Milyon_TL_Arasi
Batman,Merkez,Satilik,0,4,Yerden_Isitma,bilinmiyor,yok,var,yok,var,yok,yok,var,yok,yok,yok,var,var,yok,var,yok,yok,yok,yok,yok,yok,yok,yok,yok,yok,yok,yok,yok,yok,yok,yok,kademe_6,bilinmiyor,normal,bilinmiyor,150_200_m2,4_oda,orta_4_7_kat,2_banyo,dusuk,dusuk,dusuk,dusuk,yok,yuksek,yok,5_7_Bucuk_Milyon_TL_Arasi
Van,Ipekyolu,Satilik,16_20_arasi,7,Kombi,bilinmiyor,yok,var,yok,var,yok,yok,yok,var,yok,yok,yok,yok,yok,yok,yok,yok,yok,yok,yok,yok,yok,yok,yok,yok,yok,yok,yok,yok,yok,yok,kademe_6,normal,normal,bilinmiyor,200_300_m2,5_oda,yuksek_8_15_kat,2_banyo,yok,yok,yok,dusuk,yok,yok,yok,5_7_Bucuk_Milyon_TL_Arasi
Van,Ipekyolu,Satilik,11_15_arasi,4,Kombi,bilinmiyor,yok,var,var,yok,var,yok,yok,yok,yok,yok,yok,yok,yok,yok,yok,yok,yok,yok,yok,yok,yok,yok,yok,yok,yok,yok,yok,yok,yok,yok,kademe_6,iyi,normal,normal,75_100_m2,2_oda,yuksek_8_15_kat,1_banyo,yok,yok,yok,dusuk,yok,dusuk,yok,1_5_Milyon_TL_Alti
Van,Ipekyolu,Satilik,11_15_arasi,4,Kombi_Dogalgaz,bilinmiyor,yok,var,yok,var,yok,var,yok,var,var,yok,yok,yok,yok,yok,yok,yok,yok,yok,yok,yok,yok,var,yok,var,yok,var,yok,yok,yok,yok,kademe_6,kotu,kotu,kotu,125_150_m2,4_oda,alcak_1_3_kat,bilinmiyor,yok,yok,yok,dusuk,yok,yuksek,yok,2_3_Milyon_TL_Arasi
Igdir,Merkez,Satilik,1_5_arasi,3,Kombi_Dogalgaz,bilinmiyor,yok,yok,var,yok,yok,yok,yok,yok,yok,yok,yok,yok,yok,yok,yok,yok,yok,yok,yok,yok,yok,yok,yok,yok,yok,yok,yok,yok,yok,yok,kademe_6,normal,bilinmiyor,normal,125_150_m2,4_oda,orta_4_7_kat,1_banyo,yok,yok,yok,dusuk,yok,yok,yok,3_4_Milyon_TL_Arasi
Gumushane,Kurtun,Satilik,21_25_arasi,bilinmiyor,Soba,bilinmiyor,yok,yok,yok,yok,yok,yok,yok,yok,yok,yok,yok,yok,yok,yok,yok,yok,yok,yok,yok,yok,yok,yok,yok,yok,yok,yok,yok,yok,yok,yok,kademe_6,bilinmiyor,bilinmiyor,bilinmiyor,100_125_m2,5_oda,alcak_1_3_kat,1_banyo,yok,yok,yok,dusuk,yok,yok,yok,7_Bucuk_10_Milyon_TL_Arasi
Van,Tusba,Satilik,11_15_arasi,En_Ust_Kat,Kombi_Dogalgaz,bilinmiyor,yok,var,var,var,yok,yok,var,var,yok,yok,var,yok,yok,yok,yok,yok,yok,var,yok,yok,yok,yok,yok,var,yok,var,yok,yok,yok,yok,kademe_6,normal,bilinmiyor,bilinmiyor,125_150_m2,4_oda,orta_4_7_kat,1_banyo,dusuk,yok,yok,dusuk,orta,yuksek,yok,2_3_Milyon_TL_Arasi
Mardin,Artuklu,Satilik,11_15_arasi,2,Kombi,bilinmiyor,yok,yok,yok,yok,yok,yok,yok,yok,yok,yok,yok,yok,yok,yok,yok,yok,yok,yok,yok,yok,yok,yok,yok,yok,yok,yok,yok,yok,yok,yok,kademe_6,bilinmiyor,bilinmiyor,bilinmiyor,150_200_m2,4_oda,cok_yuksek_16_ustu_kat,1_banyo,yok,yok,yok,dusuk,yok,yok,yok,3_4_Milyon_TL_Arasi
Van,Ipekyolu,Satilik,0,2,Yerden_Isitma,bilinmiyor,yok,var,var,var,yok,yok,var,var,yok,yok,var,var,yok,var,yok,yok,yok,yok,yok,yok,yok,yok,yok,yok,yok,var,yok,yok,yok,yok,kademe_6,kotu,normal,bilinmiyor,125_150_m2,4_oda,orta_4_7_kat,2_banyo,dusuk,yok,dusuk,orta,orta,yuksek,yok,4_5_Milyon_TL_Arasi
Mardin,Artuklu,Satilik,1_5_arasi,10,Kombi,bilinmiyor,yok,var,var,var,yok,yok,yok,yok,yok,yok,var,var,yok,var,yok,yok,yok,yok,yok,yok,yok,yok,var,yok,yok,yok,yok,yok,yok,yok,kademe_6,normal,bilinmiyor,bilinmiyor,150_200_m2,4_oda,yuksek_8_15_kat,2_banyo,dusuk,dusuk,yok,orta,dusuk,yuksek,yok,5_7_Bucuk_Milyon_TL_Arasi
Adiyaman,Merkez,Satilik,0,2,Kombi,bilinmiyor,yok,var,yok,var,yok,yok,yok,yok,yok,yok,yok,yok,yok,yok,yok,yok,yok,yok,yok,yok,yok,yok,yok,yok,yok,yok,yok,yok,yok,yok,kademe_6,bilinmiyor,bilinmiyor,bilinmiyor,50_75_m2,2_oda,orta_4_7_kat,1_banyo,yok,yok,yok,dusuk,yok,yok,yok,2_3_Milyon_TL_Arasi
Mardin,Artuklu,Satilik,0,7,Kombi,bilinmiyor,yok,var,var,var,yok,yok,var,var,yok,yok,var,yok,yok,yok,yok,yok,yok,yok,yok,yok,yok,yok,yok,yok,yok,yok,yok,yok,yok,yok,kademe_6,bilinmiyor,normal,bilinmiyor,50_75_m2,2_oda,yuksek_8_15_kat,1_banyo,dusuk,yok,dusuk,dusuk,orta,yuksek,yok,1_5_Milyon_TL_Alti
Van,Edremit,Satilik,0,Bahce,Yerden_Isitma,bilinmiyor,yok,yok,yok,var,yok,var,var,var,var,yok,var,var,yok,var,yok,yok,yok,yok,yok,yok,yok,yok,yok,var,yok,var,yok,yok,yok,var,kademe_6,kotu,normal,bilinmiyor,300_m2_ve_ustu,6_oda,orta_4_7_kat,3_banyo_ve_ustu,dusuk,orta,yok,orta,yok,yuksek,yok,10_Milyon_TL_Ustu
Igdir,Merkez,Satilik,0,4,Kombi,bilinmiyor,yok,var,var,var,yok,yok,yok,yok,yok,yok,yok,yok,yok,yok,yok,yok,yok,yok,yok,yok,yok,yok,yok,yok,yok,yok,yok,yok,yok,yok,kademe_6,iyi,normal,iyi,200_300_m2,5_oda,orta_4_7_kat,1_banyo,yok,yok,yok,dusuk,dusuk,yok,yok,3_4_Milyon_TL_Arasi
Van,Ipekyolu,Satilik,0,Yuksek_Giris,Yerden_Isitma,bilinmiyor,yok,var,var,var,yok,yok,yok,yok,yok,yok,yok,yok,yok,yok,yok,yok,yok,yok,yok,yok,yok,yok,yok,yok,yok,yok,yok,yok,yok,yok,kademe_6,normal,bilinmiyor,normal,50_75_m2,3_oda,orta_4_7_kat,1_banyo,yok,yok,yok,dusuk,yok,yok,yok,2_3_Milyon_TL_Arasi
Mardin,Artuklu,Satilik,1_5_arasi,14,Kombi,bilinmiyor,yok,var,var,yok,yok,yok,yok,yok,yok,yok,yok,yok,yok,yok,yok,yok,yok,yok,yok,yok,yok,yok,yok,yok,yok,yok,yok,yok,yok,yok,kademe_6,normal,normal,bilinmiyor,300_m2_ve_ustu,6_oda,cok_yuksek_16_ustu_kat,3_banyo_ve_ustu,yok,yok,yok,dusuk,yok,yok,yok,4_5_Milyon_TL_Arasi
Diyarbakir,Sur,Satilik,6_10_arasi,1,bilinmiyor,bilinmiyor,yok,var,yok,var,yok,yok,yok,yok,yok,yok,yok,yok,yok,yok,yok,yok,yok,yok,yok,yok,yok,yok,yok,yok,yok,yok,yok,yok,yok,yok,kademe_6,bilinmiyor,bilinmiyor,bilinmiyor,200_300_m2,6_oda,alcak_1_3_kat,3_banyo_ve_ustu,yok,yok,yok,dusuk,yok,yok,yok,10_Milyon_TL_Ustu
Siirt,Merkez,Satilik,6_10_arasi,1,bilinmiyor,bilinmiyor,yok,var,yok,yok,yok,yok,yok,yok,yok,yok,yok,yok,yok,yok,yok,yok,yok,yok,yok,yok,yok,yok,yok,yok,yok,yok,yok,yok,yok,yok,kademe_6,bilinmiyor,bilinmiyor,bilinmiyor,50_75_m2,1_oda,alcak_1_3_kat,1_banyo,yok,yok,yok,dusuk,yok,yok,yok,1_5_Milyon_TL_Alti
Batman,Merkez,Satilik,0,Yuksek_Giris,Yerden_Isitma,bilinmiyor,yok,var,yok,yok,yok,yok,yok,yok,yok,yok,yok,yok,yok,yok,yok,yok,yok,yok,yok,yok,yok,yok,yok,yok,yok,yok,yok,yok,yok,yok,kademe_6,bilinmiyor,bilinmiyor,bilinmiyor,50_75_m2,2_oda,orta_4_7_kat,1_banyo,yok,yok,yok,dusuk,yok,yok,yok,1_5_2_Milyon_TL_Arasi
Kars,Merkez,Satilik,0,5,Kombi,bilinmiyor,yok,var,var,var,yok,var,yok,yok,var,yok,var,yok,yok,yok,yok,yok,yok,yok,yok,yok,yok,yok,var,yok,yok,yok,yok,yok,yok,yok,kademe_6,iyi,normal,bilinmiyor,75_100_m2,3_oda,orta_4_7_kat,1_banyo,yok,yok,yok,dusuk,orta,orta,yok,2_3_Milyon_TL_Arasi
Van,Edremit,Satilik,11_15_arasi,Yuksek_Giris,Kombi_Dogalgaz,bilinmiyor,yok,yok,yok,yok,yok,yok,var,yok,yok,yok,yok,yok,yok,yok,yok,yok,yok,yok,yok,yok,yok,yok,var,yok,yok,yok,yok,yok,yok,yok,kademe_6,normal,normal,kotu,100_125_m2,4_oda,yuksek_8_15_kat,1_banyo,yok,yok,yok,dusuk,dusuk,yok,yok,2_3_Milyon_TL_Arasi
Mardin,Kiziltepe,Satilik,26_30_arasi,1,bilinmiyor,bilinmiyor,yok,var,yok,yok,yok,yok,yok,yok,yok,yok,yok,yok,yok,yok,yok,yok,yok,yok,yok,yok,yok,yok,yok,yok,yok,yok,yok,yok,yok,yok,kademe_6,kotu,bilinmiyor,bilinmiyor,300_m2_ve_ustu,7_oda_ve_ustu,alcak_1_3_kat,2_banyo,yok,yok,yok,dusuk,yok,yok,yok,5_7_Bucuk_Milyon_TL_Arasi
Van,Ipekyolu,Satilik,1_5_arasi,5,Kombi,bilinmiyor,yok,var,yok,var,yok,var,yok,yok,var,yok,var,yok,yok,var,yok,yok,yok,yok,yok,yok,yok,yok,yok,yok,yok,var,yok,yok,yok,yok,kademe_6,bilinmiyor,normal,bilinmiyor,50_75_m2,2_oda,yuksek_8_15_kat,1_banyo,dusuk,yok,dusuk,orta,yuksek,yuksek,yok,2_3_Milyon_TL_Arasi
Batman,Merkez,Satilik,0,2,Yerden_Isitma,bilinmiyor,yok,var,yok,var,yok,yok,yok,yok,yok,yok,yok,yok,yok,yok,yok,yok,yok,yok,yok,yok,yok,yok,yok,yok,yok,yok,yok,yok,yok,yok,kademe_6,iyi,bilinmiyor,bilinmiyor,150_200_m2,4_oda,orta_4_7_kat,2_banyo,yok,yok,yok,dusuk,yok,yok,yok,4_5_Milyon_TL_Arasi
Diyarbakir,Kayapinar,Satilik,11_15_arasi,1,bilinmiyor,bilinmiyor,yok,var,yok,var,yok,yok,yok,yok,yok,yok,yok,yok,yok,yok,yok,yok,yok,yok,yok,yok,yok,yok,yok,yok,yok,yok,yok,yok,yok,yok,kademe_6,bilinmiyor,bilinmiyor,bilinmiyor,200_300_m2,5_oda,alcak_1_3_kat,2_banyo,yok,yok,yok,dusuk,yok,yok,yok,5_7_Bucuk_Milyon_TL_Arasi
Van,Ercis,Satilik,16_20_arasi,Ara_Kat,Kombi_Dogalgaz,bilinmiyor,yok,yok,yok,yok,yok,yok,var,var,yok,yok,yok,yok,yok,yok,yok,yok,yok,yok,yok,yok,yok,yok,yok,yok,yok,yok,yok,yok,yok,yok,kademe_6,kotu,bilinmiyor,kotu,125_150_m2,4_oda,orta_4_7_kat,1_banyo,yok,yok,yok,dusuk,yok,yok,yok,1_5_2_Milyon_TL_Arasi
Igdir,Merkez,Satilik,1_5_arasi,4,Kombi_Dogalgaz,bilinmiyor,yok,var,var,yok,yok,yok,yok,var,yok,yok,yok,yok,yok,yok,yok,yok,yok,yok,yok,yok,yok,yok,yok,yok,yok,yok,yok,yok,yok,yok,kademe_6,iyi,iyi,kotu,150_200_m2,4_oda,orta_4_7_kat,1_banyo,yok,yok,yok,dusuk,yok,yok,yok,4_5_Milyon_TL_Arasi
Mardin,Midyat,Satilik,1_5_arasi,En_Ust_Kat,Kombi_Dogalgaz,bilinmiyor,yok,var,yok,var,yok,yok,var,var,yok,yok,var,var,yok,var,yok,yok,yok,yok,yok,yok,yok,yok,yok,yok,yok,var,yok,yok,yok,yok,kademe_6,bilinmiyor,normal,bilinmiyor,150_200_m2,4_oda,orta_4_7_kat,2_banyo,dusuk,yok,yok,orta,orta,yuksek,yok,4_5_Milyon_TL_Arasi
Mardin,Kiziltepe,Satilik,6_10_arasi,4,Kombi_Dogalgaz,bilinmiyor,yok,yok,yok,yok,yok,yok,yok,yok,yok,yok,yok,yok,yok,yok,yok,yok,yok,yok,yok,yok,yok,yok,yok,yok,yok,yok,yok,yok,yok,yok,kademe_6,bilinmiyor,bilinmiyor,bilinmiyor,100_125_m2,3_oda,orta_4_7_kat,1_banyo,yok,yok,yok,dusuk,yok,yok,yok,1_5_Milyon_TL_Alti
Gumushane,Merkez,Satilik,26_30_arasi,Bahce,Kombi,bilinmiyor,yok,var,yok,yok,yok,yok,yok,yok,yok,yok,yok,yok,yok,yok,yok,yok,yok,yok,yok,yok,yok,yok,yok,yok,yok,yok,yok,yok,yok,yok,kademe_6,normal,iyi,kotu,200_300_m2,5_oda,bilinmiyor,3_banyo_ve_ustu,yok,yok,yok,dusuk,yok,yok,yok,5_7_Bucuk_Milyon_TL_Arasi
Mardin,Nusaybin,Satilik,11_15_arasi,4,Merkezi,bilinmiyor,yok,var,yok,var,yok,var,yok,yok,yok,yok,var,yok,yok,var,yok,yok,yok,yok,yok,yok,yok,yok,yok,yok,yok,var,yok,yok,yok,yok,kademe_6,normal,bilinmiyor,iyi,150_200_m2,4_oda,orta_4_7_kat,1_banyo,yok,yok,yok,orta,orta,orta,yok,3_4_Milyon_TL_Arasi
Van,Edremit,Satilik,6_10_arasi,Yuksek_Giris,Kombi_Dogalgaz,bilinmiyor,yok,var,var,yok,yok,var,yok,var,yok,yok,yok,yok,yok,yok,yok,yok,yok,yok,yok,yok,yok,yok,yok,yok,yok,yok,yok,yok,var,yok,kademe_6,kotu,bilinmiyor,bilinmiyor,125_150_m2,4_oda,orta_4_7_kat,1_banyo,yok,yok,yok,dusuk,yok,yok,yok,2_3_Milyon_TL_Arasi
Kars,Merkez,Satilik,11_15_arasi,4,Kombi_Dogalgaz,bilinmiyor,yok,var,yok,var,var,yok,yok,var,yok,yok,var,yok,yok,var,yok,yok,yok,yok,yok,yok,yok,yok,var,yok,yok,var,yok,yok,yok,yok,kademe_6,normal,normal,bilinmiyor,100_125_m2,5_oda,orta_4_7_kat,2_banyo,dusuk,yok,dusuk,dusuk,dusuk,yuksek,yok,1_5_2_Milyon_TL_Arasi
Van,Ipekyolu,Satilik,1_5_arasi,5,Kombi,bilinmiyor,yok,var,var,var,yok,yok,var,yok,yok,yok,yok,yok,yok,yok,yok,yok,yok,yok,yok,yok,yok,yok,yok,yok,yok,yok,yok,yok,yok,yok,kademe_6,normal,normal,kotu,150_200_m2,4_oda,orta_4_7_kat,2_banyo,yok,yok,yok,orta,dusuk,dusuk,yok,4_5_Milyon_TL_Arasi
Mardin,Artuklu,Satilik,1_5_arasi,11,Kombi,bilinmiyor,yok,var,var,var,yok,yok,var,yok,var,yok,var,var,yok,yok,yok,yok,yok,yok,yok,yok,yok,yok,var,yok,yok,var,yok,yok,yok,yok,kademe_6,iyi,normal,bilinmiyor,200_300_m2,4_oda,yuksek_8_15_kat,2_banyo,dusuk,yok,yok,dusuk,orta,yuksek,yok,5_7_Bucuk_Milyon_TL_Arasi
Diyarbakir,Yenisehir,Satilik,26_30_arasi,7,Kombi,bilinmiyor,yok,yok,yok,var,yok,yok,yok,yok,yok,yok,yok,yok,yok,yok,yok,yok,yok,yok,yok,yok,yok,yok,yok,yok,yok,yok,yok,yok,yok,yok,kademe_6,bilinmiyor,normal,bilinmiyor,150_200_m2,4_oda,yuksek_8_15_kat,1_banyo,yok,yok,yok,dusuk,yok,yok,yok,1_5_Milyon_TL_Alti
Van,Ipekyolu,Satilik,0,4,Kombi_Dogalgaz,bilinmiyor,yok,yok,yok,yok,yok,yok,yok,yok,yok,yok,yok,yok,yok,yok,yok,yok,yok,yok,yok,yok,yok,yok,yok,yok,yok,yok,yok,yok,yok,yok,kademe_6,iyi,iyi,iyi,100_125_m2,3_oda,orta_4_7_kat,1_banyo,yok,yok,yok,dusuk,yok,yok,yok,4_5_Milyon_TL_Arasi
Batman,Merkez,Satilik,0,4,Yerden_Isitma,bilinmiyor,yok,var,yok,var,yok,yok,yok,yok,var,yok,var,var,yok,var,yok,yok,yok,yok,var,yok,yok,yok,yok,yok,yok,yok,yok,yok,yok,yok,kademe_6,bilinmiyor,iyi,bilinmiyor,150_200_m2,4_oda,orta_4_7_kat,2_banyo,dusuk,dusuk,yok,dusuk,yok,yuksek,yok,5_7_Bucuk_Milyon_TL_Arasi
Mardin,Artuklu,Satilik,0,Bodrum,Kombi,bilinmiyor,yok,var,var,var,yok,yok,var,yok,yok,yok,var,yok,yok,yok,yok,yok,yok,yok,yok,yok,yok,yok,yok,yok,yok,yok,yok,yok,yok,yok,kademe_6,iyi,bilinmiyor,bilinmiyor,100_125_m2,3_oda,yuksek_8_15_kat,1_banyo,dusuk,yok,dusuk,dusuk,yok,yuksek,yok,2_3_Milyon_TL_Arasi
Mardin,Artuklu,Satilik,0,5,Kombi,bilinmiyor,yok,var,var,var,yok,yok,var,yok,yok,yok,var,yok,yok,yok,yok,yok,yok,yok,yok,yok,yok,yok,var,yok,yok,var,yok,yok,yok,yok,kademe_6,bilinmiyor,normal,iyi,150_200_m2,4_oda,yuksek_8_15_kat,1_banyo,yok,yok,yok,orta,orta,yuksek,yok,3_4_Milyon_TL_Arasi
Diyarbakir,Kayapinar,Satilik,1_5_arasi,14,Merkezi,bilinmiyor,yok,var,var,var,var,var,yok,yok,yok,yok,yok,yok,yok,yok,yok,yok,yok,yok,yok,yok,yok,yok,yok,yok,yok,yok,yok,yok,yok,yok,kademe_6,bilinmiyor,iyi,bilinmiyor,200_300_m2,5_oda,cok_yuksek_16_ustu_kat,3_banyo_ve_ustu,yok,yok,yok,dusuk,yok,dusuk,yok,7_Bucuk_10_Milyon_TL_Arasi
Diyarbakir,Kayapinar,Satilik,11_15_arasi,11,Kat_Kaloriferi,bilinmiyor,yok,var,var,var,yok,var,yok,var,var,yok,yok,yok,yok,var,yok,yok,yok,var,yok,yok,yok,yok,yok,yok,yok,var,yok,yok,yok,yok,kademe_6,normal,normal,kotu,200_300_m2,5_oda,yuksek_8_15_kat,2_banyo,orta,dusuk,yok,orta,orta,yuksek,yok,7_Bucuk_10_Milyon_TL_Arasi
Diyarbakir,Kayapinar,Satilik,6_10_arasi,5,Merkezi,bilinmiyor,yok,yok,yok,yok,yok,yok,yok,yok,yok,yok,yok,yok,yok,yok,yok,yok,yok,yok,yok,yok,yok,yok,yok,yok,yok,yok,yok,yok,yok,yok,kademe_6,kotu,bilinmiyor,kotu,200_300_m2,5_oda,yuksek_8_15_kat,2_banyo,yok,yok,yok,dusuk,yok,yok,yok,5_7_Bucuk_Milyon_TL_Arasi
Diyarbakir,Kayapinar,Satilik,1_5_arasi,2,Yerden_Isitma,bilinmiyor,yok,var,var,var,yok,yok,yok,yok,yok,yok,yok,yok,yok,yok,yok,yok,yok,yok,yok,yok,yok,yok,yok,yok,yok,yok,yok,yok,yok,yok,kademe_6,bilinmiyor,iyi,bilinmiyor,150_200_m2,4_oda,yuksek_8_15_kat,2_banyo,yok,yok,yok,dusuk,yok,dusuk,yok,7_Bucuk_10_Milyon_TL_Arasi
Mardin,Artuklu,Satilik,0,7,Kombi,bilinmiyor,yok,var,yok,var,yok,yok,yok,yok,var,yok,var,yok,yok,yok,yok,yok,yok,yok,yok,yok,yok,yok,var,yok,yok,var,yok,yok,yok,yok,kademe_6,bilinmiyor,bilinmiyor,iyi,50_75_m2,2_oda,yuksek_8_15_kat,1_banyo,dusuk,yok,dusuk,dusuk,orta,yuksek,yok,1_5_Milyon_TL_Alti
Diyarbakir,Baglar,Satilik,0,3,Merkezi,bilinmiyor,yok,var,var,var,yok,yok,yok,var,yok,yok,var,yok,yok,yok,yok,yok,yok,yok,yok,yok,yok,yok,yok,yok,yok,yok,yok,yok,yok,yok,kademe_6,bilinmiyor,iyi,bilinmiyor,75_100_m2,3_oda,yuksek_8_15_kat,1_banyo,yok,yok,yok,dusuk,yok,orta,yok,3_4_Milyon_TL_Arasi
Van,Edremit,Satilik,11_15_arasi,Ara_Kat,Kombi_Dogalgaz,bilinmiyor,yok,var,var,yok,yok,yok,var,yok,yok,yok,yok,yok,yok,yok,yok,yok,yok,yok,yok,yok,yok,yok,yok,yok,yok,yok,yok,yok,yok,yok,kademe_6,kotu,kotu,normal,100_125_m2,4_oda,orta_4_7_kat,1_banyo,yok,yok,yok,dusuk,dusuk,yok,yok,2_3_Milyon_TL_Arasi
Diyarbakir,Kayapinar,Satilik,16_20_arasi,8,Kombi_Dogalgaz,bilinmiyor,yok,var,yok,yok,yok,yok,yok,yok,yok,yok,var,yok,yok,yok,yok,yok,yok,yok,yok,yok,yok,yok,yok,yok,yok,yok,yok,yok,var,yok,kademe_6,iyi,iyi,bilinmiyor,200_300_m2,5_oda,yuksek_8_15_kat,2_banyo,yok,yok,yok,dusuk,yok,dusuk,yok,5_7_Bucuk_Milyon_TL_Arasi
Adiyaman,Merkez,Satilik,11_15_arasi,1,bilinmiyor,bilinmiyor,yok,var,var,var,yok,yok,yok,yok,yok,yok,yok,yok,yok,yok,yok,yok,yok,yok,yok,yok,yok,yok,yok,yok,yok,yok,yok,yok,yok,yok,kademe_6,bilinmiyor,bilinmiyor,bilinmiyor,150_200_m2,4_oda,alcak_1_3_kat,1_banyo,yok,yok,yok,dusuk,yok,yok,yok,2_3_Milyon_TL_Arasi
Mardin,Artuklu,Satilik,1_5_arasi,2,Kombi,bilinmiyor,yok,var,var,var,yok,yok,yok,yok,yok,yok,var,yok,yok,var,yok,yok,yok,yok,yok,yok,yok,yok,var,yok,yok,var,yok,yok,yok,yok,kademe_6,iyi,normal,iyi,100_125_m2,3_oda,yuksek_8_15_kat,1_banyo,dusuk,dusuk,yok,dusuk,orta,yuksek,yok,2_3_Milyon_TL_Arasi
Diyarbakir,Kayapinar,Satilik,6_10_arasi,Giris,Kombi_Dogalgaz,bilinmiyor,yok,var,yok,yok,yok,var,var,yok,yok,yok,yok,yok,yok,yok,yok,yok,yok,yok,yok,yok,yok,yok,yok,yok,yok,yok,yok,yok,yok,yok,kademe_6,kotu,kotu,normal,150_200_m2,4_oda,yuksek_8_15_kat,2_banyo,yok,yok,yok,dusuk,dusuk,dusuk,yok,4_5_Milyon_TL_Arasi
Adiyaman,Merkez,Satilik,1_5_arasi,Yuksek_Giris,Kombi,bilinmiyor,yok,var,yok,var,yok,var,yok,var,yok,yok,yok,yok,yok,yok,yok,yok,yok,yok,yok,yok,yok,yok,yok,yok,yok,yok,yok,yok,yok,yok,kademe_6,normal,iyi,bilinmiyor,100_125_m2,3_oda,orta_4_7_kat,1_banyo,yok,yok,yok,dusuk,yok,yok,yok,3_4_Milyon_TL_Arasi
Batman,Merkez,Satilik,1_5_arasi,Zemin,Kombi,bilinmiyor,yok,yok,yok,yok,yok,yok,yok,yok,yok,yok,yok,yok,yok,yok,yok,yok,yok,yok,yok,yok,yok,yok,yok,yok,yok,yok,yok,yok,yok,yok,kademe_6,normal,normal,bilinmiyor,50_75_m2,2_oda,orta_4_7_kat,1_banyo,yok,yok,yok,dusuk,yok,yok,yok,1_5_2_Milyon_TL_Arasi
Agri,Dogubayazit,Satilik,6_10_arasi,En_Ust_Kat,Kombi_Dogalgaz,bilinmiyor,yok,yok,yok,yok,yok,yok,yok,yok,yok,yok,yok,yok,yok,yok,yok,yok,yok,yok,yok,yok,yok,yok,yok,yok,yok,yok,var,yok,yok,yok,kademe_6,normal,kotu,bilinmiyor,300_m2_ve_ustu,5_oda,orta_4_7_kat,2_banyo,yok,yok,yok,dusuk,dusuk,yok,yok,5_7_Bucuk_Milyon_TL_Arasi
Mardin,Artuklu,Satilik,1_5_arasi,3,Kat_Kaloriferi,bilinmiyor,yok,yok,yok,yok,yok,yok,yok,yok,yok,yok,yok,yok,yok,yok,yok,yok,yok,yok,yok,yok,yok,yok,yok,yok,yok,yok,yok,yok,yok,yok,kademe_6,normal,normal,kotu,50_75_m2,2_oda,orta_4_7_kat,1_banyo,yok,yok,yok,dusuk,yok,yok,yok,1_5_Milyon_TL_Alti
Kars,Merkez,Satilik,1_5_arasi,En_Ust_Kat,Kombi_Dogalgaz,bilinmiyor,yok,yok,var,var,yok,yok,yok,yok,yok,yok,yok,yok,yok,yok,yok,yok,yok,yok,yok,yok,yok,yok,yok,yok,yok,yok,yok,yok,yok,yok,kademe_6,normal,normal,bilinmiyor,125_150_m2,4_oda,orta_4_7_kat,2_banyo,yok,yok,yok,dusuk,yok,yok,yok,3_4_Milyon_TL_Arasi
Kars,Merkez,Satilik,21_25_arasi,Bahce,Soba,bilinmiyor,yok,yok,yok,var,yok,var,var,var,var,yok,yok,yok,yok,yok,yok,yok,yok,yok,yok,yok,yok,yok,var,yok,yok,yok,yok,yok,yok,yok,kademe_6,bilinmiyor,bilinmiyor,bilinmiyor,300_m2_ve_ustu,7_oda_ve_ustu,bilinmiyor,2_banyo,yok,yok,yok,dusuk,yok,yok,yok,5_7_Bucuk_Milyon_TL_Arasi
Batman,Merkez,Satilik,1_5_arasi,3,Kombi_Dogalgaz,bilinmiyor,yok,yok,yok,var,yok,yok,yok,yok,yok,yok,yok,yok,yok,yok,yok,yok,yok,yok,yok,yok,yok,yok,yok,yok,yok,yok,yok,yok,yok,yok,kademe_6,normal,normal,normal,150_200_m2,4_oda,yuksek_8_15_kat,2_banyo,yok,yok,yok,dusuk,yok,yok,yok,4_5_Milyon_TL_Arasi
Van,Edremit,Satilik,0,3,Yerden_Isitma,bilinmiyor,yok,var,var,var,yok,var,yok,yok,var,yok,var,var,yok,yok,yok,yok,yok,yok,var,yok,yok,yok,yok,var,yok,var,yok,yok,yok,yok,kademe_6,iyi,bilinmiyor,iyi,300_m2_ve_ustu,5_oda,orta_4_7_kat,2_banyo,orta,dusuk,dusuk,orta,orta,yuksek,yok,5_7_Bucuk_Milyon_TL_Arasi
Bingol,Merkez,Satilik,0,1,Kombi,bilinmiyor,yok,var,var,var,yok,yok,yok,yok,yok,yok,yok,yok,yok,yok,yok,yok,yok,yok,yok,yok,yok,yok,yok,yok,yok,yok,yok,yok,yok,yok,kademe_6,iyi,bilinmiyor,kotu,150_200_m2,4_oda,orta_4_7_kat,2_banyo,yok,yok,yok,dusuk,yok,yok,yok,7_Bucuk_10_Milyon_TL_Arasi
Van,Ipekyolu,Satilik,6_10_arasi,Giris,Kombi,bilinmiyor,yok,yok,var,var,yok,yok,yok,yok,yok,yok,yok,yok,yok,yok,yok,yok,yok,yok,yok,yok,yok,yok,yok,yok,yok,yok,yok,yok,yok,yok,kademe_6,normal,kotu,bilinmiyor,125_150_m2,4_oda,orta_4_7_kat,1_banyo,yok,yok,yok,dusuk,yok,yok,yok,4_5_Milyon_TL_Arasi
Van,Tusba,Satilik,1_5_arasi,Bahce,Kombi,bilinmiyor,yok,var,yok,var,yok,var,var,var,var,yok,yok,yok,yok,yok,yok,yok,yok,yok,yok,yok,yok,yok,var,yok,yok,var,yok,yok,yok,yok,kademe_6,iyi,iyi,iyi,200_300_m2,3_oda,alcak_1_3_kat,2_banyo,yok,yok,yok,dusuk,orta,orta,yok,3_4_Milyon_TL_Arasi
Mardin,Kiziltepe,Satilik,11_15_arasi,1,bilinmiyor,bilinmiyor,yok,var,var,yok,yok,yok,yok,yok,yok,yok,yok,yok,yok,yok,yok,yok,yok,yok,yok,yok,yok,yok,yok,yok,yok,yok,yok,yok,yok,yok,kademe_6,bilinmiyor,bilinmiyor,bilinmiyor,125_150_m2,4_oda,alcak_1_3_kat,1_banyo,yok,yok,yok,dusuk,yok,yok,yok,2_3_Milyon_TL_Arasi
Mardin,Artuklu,Satilik,6_10_arasi,4,Kombi,bilinmiyor,yok,var,var,var,yok,var,yok,var,var,yok,var,yok,yok,yok,yok,yok,yok,yok,yok,yok,yok,yok,var,yok,yok,var,yok,yok,yok,yok,kademe_6,bilinmiyor,normal,kotu,150_200_m2,4_oda,yuksek_8_15_kat,1_banyo,dusuk,yok,dusuk,orta,yok,yuksek,yok,3_4_Milyon_TL_Arasi
Batman,Merkez,Satilik,0,2,Kombi,bilinmiyor,yok,var,var,var,yok,var,var,var,var,yok,yok,yok,yok,yok,yok,yok,yok,yok,yok,yok,yok,yok,yok,yok,yok,yok,yok,yok,yok,yok,kademe_6,bilinmiyor,bilinmiyor,bilinmiyor,125_150_m2,3_oda,orta_4_7_kat,2_banyo,yok,yok,yok,dusuk,yok,dusuk,yok,2_3_Milyon_TL_Arasi
Van,Ipekyolu,Satilik,6_10_arasi,5,Kombi,bilinmiyor,yok,var,var,var,yok,var,yok,var,yok,yok,yok,yok,yok,yok,yok,yok,yok,yok,yok,yok,yok,yok,yok,yok,yok,yok,yok,yok,yok,yok,kademe_6,normal,normal,bilinmiyor,150_200_m2,4_oda,orta_4_7_kat,2_banyo,yok,yok,yok,dusuk,yok,dusuk,yok,5_7_Bucuk_Milyon_TL_Arasi
Mardin,Artuklu,Satilik,16_20_arasi,2,Soba,bilinmiyor,yok,var,yok,var,yok,yok,yok,yok,yok,yok,yok,yok,yok,yok,yok,yok,yok,yok,yok,yok,yok,yok,yok,yok,yok,yok,yok,yok,yok,yok,kademe_6,bilinmiyor,bilinmiyor,bilinmiyor,125_150_m2,4_oda,orta_4_7_kat,1_banyo,yok,yok,yok,dusuk,yok,yok,yok,1_5_2_Milyon_TL_Arasi
Batman,Merkez,Satilik,0,3,Yerden_Isitma,bilinmiyor,yok,var,yok,var,yok,yok,var,yok,yok,yok,var,var,yok,var,yok,yok,yok,yok,var,yok,yok,yok,yok,yok,yok,yok,yok,yok,yok,yok,kademe_6,bilinmiyor,iyi,kotu,125_150_m2,4_oda,orta_4_7_kat,2_banyo,dusuk,dusuk,dusuk,dusuk,yuksek,yuksek,yok,5_7_Bucuk_Milyon_TL_Arasi
Van,Ipekyolu,Satilik,0,Yuksek_Giris,Yerden_Isitma,bilinmiyor,yok,var,var,var,yok,var,yok,var,yok,yok,var,var,yok,var,yok,yok,yok,yok,yok,yok,yok,yok,yok,yok,yok,var,yok,yok,yok,yok,kademe_6,normal,bilinmiyor,iyi,200_300_m2,5_oda,yuksek_8_15_kat,2_banyo,dusuk,yok,dusuk,orta,yuksek,yuksek,yok,5_7_Bucuk_Milyon_TL_Arasi
Van,Ipekyolu,Satilik,1_5_arasi,4,Kombi_Dogalgaz,bilinmiyor,yok,yok,yok,yok,yok,yok,yok,yok,yok,yok,yok,yok,yok,yok,yok,yok,yok,yok,yok,yok,yok,yok,yok,yok,yok,yok,yok,yok,yok,yok,kademe_6,iyi,normal,bilinmiyor,150_200_m2,4_oda,orta_4_7_kat,1_banyo,yok,yok,yok,dusuk,dusuk,yok,yok,5_7_Bucuk_Milyon_TL_Arasi
Mardin,Artuklu,Satilik,1_5_arasi,Bodrum,Kombi,bilinmiyor,yok,yok,var,var,yok,yok,yok,yok,yok,yok,var,yok,yok,var,yok,yok,yok,yok,yok,yok,yok,yok,yok,yok,yok,yok,yok,yok,yok,yok,kademe_6,normal,normal,iyi,50_75_m2,2_oda,yuksek_8_15_kat,1_banyo,dusuk,yok,yok,dusuk,orta,orta,yok,1_5_Milyon_TL_Alti
Van,Tusba,Satilik,1_5_arasi,bilinmiyor,Yerden_Isitma,bilinmiyor,yok,var,var,var,yok,yok,yok,var,yok,yok,yok,var,yok,yok,yok,yok,yok,yok,yok,yok,yok,yok,yok,var,yok,var,yok,yok,yok,yok,kademe_6,iyi,iyi,bilinmiyor,150_200_m2,4_oda,orta_4_7_kat,2_banyo,dusuk,yok,yok,dusuk,orta,yuksek,yok,10_Milyon_TL_Ustu
Mardin,Artuklu,Satilik,0,2,Kombi_Dogalgaz,bilinmiyor,yok,var,var,yok,yok,yok,yok,yok,yok,yok,yok,yok,yok,yok,yok,yok,yok,yok,yok,yok,yok,yok,yok,yok,yok,yok,yok,yok,yok,yok,kademe_6,iyi,iyi,iyi,150_200_m2,4_oda,yuksek_8_15_kat,2_banyo,yok,yok,yok,yok,yok,yok,yok,3_4_Milyon_TL_Arasi
Van,Tusba,Satilik,16_20_arasi,Bahce,Kombi,bilinmiyor,yok,var,yok,yok,yok,var,var,var,yok,yok,yok,yok,yok,yok,yok,yok,yok,yok,yok,yok,yok,yok,yok,yok,yok,yok,yok,yok,yok,yok,kademe_6,normal,normal,bilinmiyor,150_200_m2,4_oda,bilinmiyor,2_banyo,yok,yok,yok,dusuk,orta,yok,yok,7_Bucuk_10_Milyon_TL_Arasi
Van,Ipekyolu,Satilik,0,1,Kombi_Dogalgaz,bilinmiyor,yok,var,yok,var,yok,yok,yok,yok,yok,yok,yok,yok,yok,yok,yok,yok,yok,yok,yok,yok,yok,yok,yok,yok,yok,yok,yok,yok,yok,yok,kademe_6,iyi,normal,bilinmiyor,100_125_m2,3_oda,orta_4_7_kat,1_banyo,yok,yok,yok,dusuk,yok,yok,yok,2_3_Milyon_TL_Arasi
Batman,Merkez,Satilik,11_15_arasi,1,bilinmiyor,bilinmiyor,yok,var,yok,yok,yok,yok,yok,yok,yok,yok,yok,yok,yok,yok,yok,yok,yok,yok,yok,yok,yok,yok,yok,yok,yok,yok,yok,yok,yok,yok,kademe_6,normal,normal,bilinmiyor,150_200_m2,4_oda,alcak_1_3_kat,2_banyo,yok,yok,yok,dusuk,yok,yok,yok,4_5_Milyon_TL_Arasi
Batman,Merkez,Satilik,11_15_arasi,1,bilinmiyor,bilinmiyor,yok,yok,yok,yok,yok,yok,yok,yok,yok,yok,yok,yok,yok,yok,yok,yok,yok,yok,yok,yok,yok,yok,yok,yok,yok,yok,yok,yok,yok,yok,kademe_6,bilinmiyor,bilinmiyor,bilinmiyor,100_125_m2,3_oda,alcak_1_3_kat,2_banyo,yok,yok,yok,yok,yok,yok,yok,3_4_Milyon_TL_Arasi
Adiyaman,Merkez,Satilik,0,3,Kombi_Dogalgaz,bilinmiyor,yok,var,var,var,yok,yok,yok,var,yok,yok,yok,yok,yok,yok,yok,yok,yok,yok,yok,yok,yok,yok,var,yok,yok,var,yok,yok,yok,yok,kademe_6,iyi,bilinmiyor,iyi,50_75_m2,1_oda,orta_4_7_kat,bilinmiyor,dusuk,dusuk,yok,dusuk,dusuk,yuksek,yok,1_5_2_Milyon_TL_Arasi
Van,Ipekyolu,Satilik,6_10_arasi,5,Kombi,bilinmiyor,yok,yok,var,yok,var,var,var,var,var,yok,yok,yok,yok,yok,yok,yok,yok,yok,yok,yok,yok,yok,yok,yok,yok,var,yok,yok,yok,yok,kademe_6,kotu,kotu,bilinmiyor,50_75_m2,2_oda,yuksek_8_15_kat,1_banyo,yok,yok,yok,dusuk,yok,yok,yok,1_5_2_Milyon_TL_Arasi
Diyarbakir,Baglar,Satilik,26_30_arasi,3,Soba,bilinmiyor,yok,var,yok,var,yok,yok,yok,yok,yok,yok,var,yok,yok,yok,yok,yok,yok,yok,yok,yok,yok,yok,yok,yok,yok,yok,yok,yok,yok,yok,kademe_6,normal,normal,normal,125_150_m2,4_oda,orta_4_7_kat,1_banyo,yok,yok,yok,dusuk,yok,orta,yok,1_5_Milyon_TL_Alti
Diyarbakir,Kayapinar,Satilik,1_5_arasi,1,bilinmiyor,bilinmiyor,yok,var,var,yok,yok,yok,yok,yok,yok,yok,yok,yok,yok,yok,yok,yok,yok,yok,yok,yok,yok,yok,yok,yok,yok,yok,yok,yok,yok,yok,kademe_6,bilinmiyor,bilinmiyor,bilinmiyor,200_300_m2,5_oda,alcak_1_3_kat,1_banyo,yok,yok,yok,dusuk,yok,yok,yok,5_7_Bucuk_Milyon_TL_Arasi
Diyarbakir,Kayapinar,Satilik,1_5_arasi,2,Yerden_Isitma,bilinmiyor,yok,var,var,var,yok,yok,yok,yok,yok,yok,yok,yok,yok,yok,yok,yok,yok,yok,yok,yok,yok,yok,yok,yok,yok,yok,yok,yok,yok,yok,kademe_6,bilinmiyor,bilinmiyor,bilinmiyor,150_200_m2,4_oda,yuksek_8_15_kat,2_banyo,yok,yok,yok,dusuk,yok,yok,yok,7_Bucuk_10_Milyon_TL_Arasi
Batman,Merkez,Satilik,1_5_arasi,1,bilinmiyor,bilinmiyor,yok,var,yok,yok,yok,yok,yok,yok,yok,yok,yok,yok,yok,yok,yok,yok,yok,yok,yok,yok,yok,yok,yok,yok,yok,yok,yok,yok,yok,yok,kademe_6,bilinmiyor,bilinmiyor,bilinmiyor,125_150_m2,4_oda,alcak_1_3_kat,2_banyo,yok,yok,yok,dusuk,dusuk,yok,yok,3_4_Milyon_TL_Arasi
Van,Edremit,Satilik,1_5_arasi,Bahce,Kombi,bilinmiyor,yok,var,yok,yok,yok,var,var,var,var,yok,var,yok,yok,yok,yok,yok,yok,yok,yok,yok,yok,yok,var,yok,yok,var,yok,var,yok,yok,kademe_6,normal,normal,bilinmiyor,200_300_m2,4_oda,bilinmiyor,2_banyo,yok,yok,dusuk,orta,yuksek,yuksek,yok,10_Milyon_TL_Ustu
Kars,Sarikamis,Satilik,16_20_arasi,3,Kombi_Dogalgaz,bilinmiyor,yok,yok,yok,yok,yok,var,var,yok,yok,yok,yok,yok,yok,yok,yok,yok,yok,yok,yok,yok,yok,yok,yok,yok,yok,yok,yok,yok,yok,yok,kademe_6,kotu,kotu,bilinmiyor,125_150_m2,3_oda,orta_4_7_kat,1_banyo,yok,yok,yok,dusuk,yok,yok,yok,2_3_Milyon_TL_Arasi
Mardin,Artuklu,Satilik,0,Kot_3,Kombi,bilinmiyor,yok,var,var,var,yok,yok,yok,yok,yok,yok,yok,yok,yok,yok,yok,yok,yok,yok,yok,yok,yok,yok,yok,yok,yok,yok,yok,yok,yok,yok,kademe_6,iyi,iyi,bilinmiyor,200_300_m2,5_oda,cok_yuksek_16_ustu_kat,2_banyo,yok,yok,yok,yok,yok,dusuk,yok,2_3_Milyon_TL_Arasi
Gumushane,Kelkit,Satilik,16_20_arasi,Zemin,Kombi,bilinmiyor,yok,yok,yok,yok,yok,yok,yok,yok,yok,yok,yok,yok,yok,yok,yok,yok,yok,yok,yok,yok,yok,yok,yok,yok,yok,yok,yok,yok,yok,yok,kademe_6,normal,bilinmiyor,bilinmiyor,100_125_m2,4_oda,orta_4_7_kat,1_banyo,yok,yok,yok,dusuk,yok,yok,yok,2_3_Milyon_TL_Arasi
Diyarbakir,Kayapinar,Satilik,0,5,Merkezi,bilinmiyor,yok,var,var,var,yok,yok,yok,yok,yok,yok,yok,yok,yok,yok,yok,yok,yok,yok,yok,yok,yok,yok,yok,yok,yok,yok,yok,yok,yok,yok,kademe_6,bilinmiyor,iyi,iyi,150_200_m2,4_oda,yuksek_8_15_kat,2_banyo,yok,yok,yok,dusuk,yok,yok,yok,5_7_Bucuk_Milyon_TL_Arasi
Mardin,Kiziltepe,Satilik,11_15_arasi,1,bilinmiyor,bilinmiyor,yok,var,var,yok,yok,yok,yok,yok,yok,yok,yok,yok,yok,yok,yok,yok,yok,yok,yok,yok,yok,yok,yok,yok,yok,yok,yok,yok,yok,yok,kademe_6,bilinmiyor,bilinmiyor,bilinmiyor,150_200_m2,4_oda,alcak_1_3_kat,2_banyo,yok,yok,yok,dusuk,yok,yok,yok,3_4_Milyon_TL_Arasi
Van,Edremit,Satilik,0,1,Kombi,bilinmiyor,yok,var,yok,yok,yok,var,yok,yok,var,yok,yok,yok,yok,yok,yok,yok,yok,yok,yok,yok,yok,yok,var,var,yok,yok,yok,yok,yok,yok,kademe_6,bilinmiyor,bilinmiyor,bilinmiyor,150_200_m2,4_oda,orta_4_7_kat,2_banyo,yok,yok,yok,dusuk,dusuk,dusuk,yok,5_7_Bucuk_Milyon_TL_Arasi
Gumushane,Merkez,Satilik,26_30_arasi,2,Kombi,bilinmiyor,yok,var,yok,var,var,yok,yok,yok,yok,yok,yok,yok,yok,yok,yok,yok,yok,yok,yok,yok,yok,yok,yok,yok,yok,yok,yok,yok,yok,yok,kademe_6,kotu,kotu,kotu,100_125_m2,4_oda,orta_4_7_kat,1_banyo,yok,yok,yok,dusuk,yok,yok,yok,2_3_Milyon_TL_Arasi
Batman,Merkez,Satilik,0,1,Kombi,bilinmiyor,yok,var,yok,yok,yok,yok,var,var,yok,yok,yok,yok,yok,yok,yok,yok,yok,yok,yok,yok,yok,yok,yok,yok,yok,var,yok,yok,yok,yok,kademe_6,bilinmiyor,bilinmiyor,kotu,150_200_m2,5_oda,orta_4_7_kat,2_banyo,yok,yok,yok,dusuk,orta,orta,yok,4_5_Milyon_TL_Arasi
Mardin,Artuklu,Satilik,1_5_arasi,11,Kombi,bilinmiyor,yok,var,yok,var,yok,yok,yok,yok,yok,yok,var,var,yok,yok,yok,yok,yok,yok,yok,yok,yok,yok,var,yok,yok,var,yok,yok,yok,yok,kademe_6,bilinmiyor,normal,bilinmiyor,150_200_m2,4_oda,yuksek_8_15_kat,1_banyo,dusuk,yok,yok,dusuk,orta,yuksek,yok,4_5_Milyon_TL_Arasi
Mardin,Artuklu,Satilik,0,3,Kombi,bilinmiyor,yok,var,yok,var,yok,yok,var,yok,var,yok,var,var,yok,yok,yok,yok,yok,yok,yok,yok,yok,yok,var,yok,yok,var,yok,yok,yok,yok,kademe_6,iyi,normal,bilinmiyor,200_300_m2,5_oda,yuksek_8_15_kat,2_banyo,dusuk,dusuk,yok,orta,dusuk,yuksek,yok,5_7_Bucuk_Milyon_TL_Arasi
Van,Ipekyolu,Satilik,11_15_arasi,6,Kombi_Dogalgaz,bilinmiyor,yok,var,yok,yok,yok,yok,var,yok,var,yok,yok,yok,yok,yok,yok,yok,yok,yok,yok,yok,yok,yok,yok,yok,yok,yok,yok,yok,yok,yok,kademe_6,normal,normal,bilinmiyor,150_200_m2,4_oda,yuksek_8_15_kat,1_banyo,yok,yok,yok,dusuk,yok,yok,yok,3_4_Milyon_TL_Arasi
Van,Ipekyolu,Satilik,6_10_arasi,1,bilinmiyor,bilinmiyor,yok,var,var,yok,yok,yok,yok,yok,yok,yok,yok,yok,yok,yok,yok,yok,yok,yok,yok,yok,yok,yok,yok,yok,yok,yok,yok,yok,yok,yok,kademe_6,bilinmiyor,bilinmiyor,bilinmiyor,150_200_m2,4_oda,alcak_1_3_kat,2_banyo,yok,yok,yok,dusuk,yok,yok,yok,3_4_Milyon_TL_Arasi
Adiyaman,Merkez,Satilik,1_5_arasi,2,Kombi_Dogalgaz,bilinmiyor,yok,var,var,var,var,var,var,yok,var,yok,var,var,yok,var,yok,yok,yok,yok,yok,yok,yok,yok,yok,yok,yok,yok,yok,yok,yok,yok,kademe_6,normal,normal,bilinmiyor,150_200_m2,4_oda,orta_4_7_kat,2_banyo,yok,yok,yok,orta,orta,yuksek,yok,3_4_Milyon_TL_Arasi
Van,Tusba,Satilik,1_5_arasi,bilinmiyor,Soba,bilinmiyor,yok,var,yok,yok,var,yok,yok,yok,yok,yok,var,yok,yok,yok,yok,yok,yok,yok,yok,yok,yok,var,yok,var,yok,yok,yok,yok,yok,yok,kademe_6,iyi,iyi,bilinmiyor,100_125_m2,3_oda,alcak_1_3_kat,1_banyo,yok,yok,yok,dusuk,dusuk,dusuk,yok,2_3_Milyon_TL_Arasi
Adiyaman,Merkez,Satilik,1_5_arasi,4,Kombi_Dogalgaz,bilinmiyor,yok,yok,yok,yok,yok,var,yok,yok,var,yok,yok,yok,yok,yok,yok,yok,yok,yok,yok,yok,yok,yok,yok,yok,yok,yok,yok,yok,yok,yok,kademe_6,iyi,normal,bilinmiyor,100_125_m2,3_oda,orta_4_7_kat,1_banyo,yok,yok,yok,dusuk,yok,yok,yok,2_3_Milyon_TL_Arasi
Bingol,Merkez,Satilik,31_ve_uzeri,En_Ust_Kat,Soba,bilinmiyor,yok,yok,yok,var,yok,yok,yok,var,yok,yok,yok,yok,yok,yok,yok,yok,yok,yok,yok,yok,yok,yok,yok,yok,yok,yok,yok,yok,yok,yok,kademe_6,normal,normal,kotu,100_125_m2,3_oda,orta_4_7_kat,1_banyo,yok,yok,yok,dusuk,yok,yok,yok,1_5_2_Milyon_TL_Arasi
Van,Ipekyolu,Satilik,11_15_arasi,1,Kombi_Dogalgaz,bilinmiyor,yok,var,var,var,yok,var,yok,yok,yok,yok,var,yok,yok,var,yok,yok,yok,var,yok,yok,yok,yok,yok,yok,yok,var,yok,yok,yok,yok,kademe_6,normal,iyi,bilinmiyor,125_150_m2,3_oda,orta_4_7_kat,1_banyo,dusuk,yok,yok,dusuk,orta,yuksek,yok,3_4_Milyon_TL_Arasi
Van,Ipekyolu,Satilik,6_10_arasi,1,Kombi,bilinmiyor,yok,var,yok,var,yok,var,yok,yok,var,yok,var,var,yok,var,yok,yok,yok,yok,yok,yok,yok,yok,var,yok,yok,var,yok,yok,yok,yok,kademe_6,kotu,kotu,normal,200_300_m2,4_oda,yuksek_8_15_kat,2_banyo,dusuk,yok,dusuk,orta,orta,yuksek,yok,5_7_Bucuk_Milyon_TL_Arasi
Mardin,Kiziltepe,Satilik,11_15_arasi,1,bilinmiyor,bilinmiyor,yok,var,var,yok,yok,yok,yok,yok,yok,yok,yok,yok,yok,yok,yok,yok,yok,yok,yok,yok,yok,yok,yok,yok,yok,yok,yok,yok,yok,yok,kademe_6,normal,bilinmiyor,bilinmiyor,125_150_m2,4_oda,alcak_1_3_kat,1_banyo,yok,yok,yok,dusuk,yok,yok,yok,2_3_Milyon_TL_Arasi
Van,Ipekyolu,Satilik,0,3,Kombi,bilinmiyor,yok,var,var,var,yok,var,yok,yok,yok,yok,var,yok,yok,var,yok,yok,yok,yok,yok,yok,yok,yok,yok,yok,yok,yok,yok,yok,yok,yok,kademe_6,bilinmiyor,bilinmiyor,bilinmiyor,50_75_m2,2_oda,orta_4_7_kat,1_banyo,dusuk,yok,yok,dusuk,orta,yuksek,yok,2_3_Milyon_TL_Arasi
Kars,Merkez,Satilik,16_20_arasi,2,Kombi,bilinmiyor,yok,var,var,var,yok,var,yok,var,yok,yok,yok,yok,yok,var,yok,yok,yok,yok,yok,yok,yok,yok,yok,yok,yok,yok,yok,yok,yok,yok,kademe_6,normal,bilinmiyor,bilinmiyor,125_150_m2,4_oda,orta_4_7_kat,1_banyo,yok,yok,dusuk,dusuk,orta,yuksek,yok,2_3_Milyon_TL_Arasi
Mardin,Artuklu,Satilik,0,Bodrum,Kombi,bilinmiyor,yok,var,yok,var,yok,yok,var,yok,var,yok,yok,yok,yok,yok,yok,yok,yok,yok,yok,yok,yok,yok,var,yok,yok,yok,yok,yok,yok,yok,kademe_6,iyi,normal,bilinmiyor,75_100_m2,3_oda,yuksek_8_15_kat,1_banyo,dusuk,yok,yok,orta,yok,yuksek,yok,2_3_Milyon_TL_Arasi
Diyarbakir,Yenisehir,Satilik,0,Bahce,Yerden_Isitma,bilinmiyor,yok,yok,yok,var,yok,yok,var,yok,yok,yok,yok,yok,yok,yok,yok,yok,yok,yok,var,yok,yok,yok,yok,yok,yok,yok,yok,yok,yok,yok,kademe_6,iyi,iyi,bilinmiyor,300_m2_ve_ustu,7_oda_ve_ustu,alcak_1_3_kat,3_banyo_ve_ustu,yok,yok,yok,dusuk,yok,yok,yok,10_Milyon_TL_Ustu
Adiyaman,Merkez,Satilik,6_10_arasi,7,Kombi,bilinmiyor,yok,yok,yok,var,yok,yok,yok,yok,yok,yok,yok,yok,yok,yok,yok,yok,yok,yok,yok,yok,yok,yok,yok,yok,yok,yok,yok,yok,yok,yok,kademe_6,bilinmiyor,bilinmiyor,bilinmiyor,150_200_m2,6_oda,yuksek_8_15_kat,1_banyo,yok,yok,yok,dusuk,yok,yok,yok,2_3_Milyon_TL_Arasi
Van,Ipekyolu,Satilik,11_15_arasi,Giris,Kombi_Dogalgaz,bilinmiyor,yok,var,yok,var,yok,yok,yok,yok,yok,yok,yok,yok,yok,yok,yok,yok,yok,yok,yok,yok,yok,yok,yok,yok,yok,yok,yok,yok,yok,yok,kademe_6,iyi,normal,kotu,75_100_m2,3_oda,orta_4_7_kat,1_banyo,yok,yok,yok,dusuk,yok,yok,yok,2_3_Milyon_TL_Arasi
Van,Ipekyolu,Satilik,6_10_arasi,bilinmiyor,Soba,bilinmiyor,yok,var,yok,yok,yok,var,var,var,var,yok,var,yok,yok,yok,yok,yok,yok,yok,yok,yok,yok,yok,yok,yok,yok,yok,yok,yok,yok,yok,kademe_6,bilinmiyor,bilinmiyor,bilinmiyor,150_200_m2,4_oda,orta_4_7_kat,1_banyo,yok,yok,yok,dusuk,yok,yok,yok,10_Milyon_TL_Ustu
Van,Ipekyolu,Satilik,6_10_arasi,4,Kombi,bilinmiyor,yok,var,yok,var,var,yok,yok,var,yok,yok,var,yok,yok,yok,yok,yok,yok,yok,yok,yok,yok,yok,yok,yok,yok,var,yok,yok,yok,yok,kademe_6,normal,normal,kotu,75_100_m2,3_oda,orta_4_7_kat,1_banyo,dusuk,yok,dusuk,dusuk,yuksek,orta,yok,2_3_Milyon_TL_Arasi
Diyarbakir,Kayapinar,Satilik,11_15_arasi,4,Kombi,bilinmiyor,yok,var,yok,var,yok,var,var,var,yok,yok,yok,var,yok,yok,yok,yok,yok,yok,yok,yok,yok,yok,yok,yok,yok,var,yok,yok,yok,yok,kademe_6,normal,kotu,bilinmiyor,150_200_m2,4_oda,yuksek_8_15_kat,2_banyo,dusuk,yok,dusuk,dusuk,yuksek,orta,yok,4_5_Milyon_TL_Arasi
Mardin,Artuklu,Satilik,0,Bodrum,Kombi,bilinmiyor,yok,yok,yok,var,var,yok,yok,var,yok,yok,yok,yok,yok,yok,yok,yok,yok,yok,yok,yok,yok,yok,yok,yok,yok,var,yok,yok,yok,yok,kademe_6,iyi,bilinmiyor,iyi,50_75_m2,2_oda,yuksek_8_15_kat,1_banyo,yok,yok,dusuk,orta,yuksek,dusuk,yok,1_5_Milyon_TL_Alti
Mardin,Artuklu,Satilik,11_15_arasi,4,Kombi,bilinmiyor,yok,var,yok,var,yok,var,yok,yok,var,yok,var,var,yok,yok,yok,yok,yok,yok,yok,yok,yok,yok,var,yok,yok,var,yok,yok,yok,yok,kademe_6,iyi,bilinmiyor,bilinmiyor,150_200_m2,4_oda,yuksek_8_15_kat,2_banyo,dusuk,yok,dusuk,orta,yuksek,yuksek,yok,4_5_Milyon_TL_Arasi
Diyarbakir,Kayapinar,Satilik,0,4,Yerden_Isitma,bilinmiyor,yok,var,var,var,yok,yok,var,yok,yok,yok,yok,yok,yok,yok,yok,yok,yok,yok,yok,yok,yok,yok,yok,yok,yok,yok,yok,yok,yok,yok,kademe_6,kotu,iyi,iyi,100_125_m2,3_oda,yuksek_8_15_kat,2_banyo,yok,yok,yok,dusuk,yok,yok,yok,5_7_Bucuk_Milyon_TL_Arasi
Mardin,Artuklu,Satilik,0,1,Kombi,bilinmiyor,yok,var,yok,var,yok,var,yok,yok,var,yok,var,yok,yok,yok,yok,yok,yok,yok,yok,yok,yok,yok,var,yok,yok,var,yok,yok,yok,yok,kademe_6,iyi,bilinmiyor,bilinmiyor,50_75_m2,2_oda,yuksek_8_15_kat,1_banyo,dusuk,yok,yok,orta,dusuk,yuksek,yok,1_5_2_Milyon_TL_Arasi
Van,Ipekyolu,Satilik,11_15_arasi,Bahce,Kombi,bilinmiyor,yok,var,yok,yok,yok,var,var,var,var,yok,yok,yok,yok,yok,yok,yok,yok,yok,yok,yok,yok,yok,yok,yok,yok,var,yok,yok,yok,yok,kademe_6,normal,bilinmiyor,bilinmiyor,300_m2_ve_ustu,4_oda,bilinmiyor,2_banyo,yok,yok,yok,dusuk,yok,dusuk,yok,10_Milyon_TL_Ustu
Van,Ipekyolu,Satilik,1_5_arasi,Yuksek_Giris,Kombi,bilinmiyor,yok,var,yok,var,yok,var,yok,yok,var,yok,yok,yok,yok,yok,yok,yok,yok,yok,yok,yok,yok,yok,yok,yok,yok,var,yok,yok,yok,yok,kademe_6,kotu,normal,bilinmiyor,125_150_m2,4_oda,orta_4_7_kat,2_banyo,yok,yok,yok,dusuk,dusuk,dusuk,yok,4_5_Milyon_TL_Arasi
Adiyaman,Kahta,Satilik,21_25_arasi,bilinmiyor,Soba,bilinmiyor,yok,yok,yok,yok,yok,var,var,var,var,yok,yok,yok,yok,yok,yok,yok,yok,yok,yok,yok,yok,var,var,var,yok,var,yok,yok,yok,yok,kademe_6,bilinmiyor,bilinmiyor,bilinmiyor,300_m2_ve_ustu,3_oda,alcak_1_3_kat,1_banyo,yok,yok,yok,dusuk,yok,dusuk,yok,1_5_Milyon_TL_Alti
Mardin,Artuklu,Satilik,1_5_arasi,7,Kombi,bilinmiyor,yok,var,yok,var,var,var,yok,yok,yok,yok,yok,yok,yok,yok,yok,yok,yok,yok,yok,yok,yok,yok,var,yok,yok,var,yok,yok,yok,yok,kademe_6,normal,iyi,bilinmiyor,50_75_m2,2_oda,yuksek_8_15_kat,1_banyo,dusuk,yok,yok,orta,yok,yuksek,yok,1_5_2_Milyon_TL_Arasi
Batman,Merkez,Satilik,11_15_arasi,1,bilinmiyor,bilinmiyor,yok,var,yok,yok,yok,yok,yok,yok,yok,yok,yok,yok,yok,yok,yok,yok,yok,yok,yok,yok,yok,yok,yok,yok,yok,yok,yok,yok,yok,yok,kademe_6,bilinmiyor,bilinmiyor,bilinmiyor,200_300_m2,4_oda,alcak_1_3_kat,2_banyo,yok,yok,yok,dusuk,yok,yok,yok,4_5_Milyon_TL_Arasi
Igdir,Merkez,Satilik,11_15_arasi,1,bilinmiyor,bilinmiyor,yok,var,yok,yok,yok,yok,yok,yok,yok,yok,yok,yok,yok,yok,yok,yok,yok,yok,yok,yok,yok,yok,yok,yok,yok,yok,yok,yok,yok,yok,kademe_6,bilinmiyor,bilinmiyor,bilinmiyor,100_125_m2,3_oda,alcak_1_3_kat,1_banyo,yok,yok,yok,dusuk,yok,yok,yok,2_3_Milyon_TL_Arasi
Diyarbakir,Yenisehir,Satilik,1_5_arasi,5,Merkezi,bilinmiyor,yok,var,var,var,yok,yok,var,yok,yok,yok,yok,var,yok,var,yok,yok,yok,var,yok,yok,yok,yok,var,yok,yok,var,yok,yok,yok,yok,kademe_6,normal,bilinmiyor,kotu,150_200_m2,5_oda,yuksek_8_15_kat,2_banyo,orta,yok,dusuk,dusuk,orta,yuksek,orta,5_7_Bucuk_Milyon_TL_Arasi
Batman,Merkez,Satilik,6_10_arasi,2,Kombi_Dogalgaz,bilinmiyor,yok,var,var,yok,yok,var,var,var,var,yok,yok,yok,yok,yok,yok,yok,yok,yok,yok,yok,yok,yok,yok,yok,yok,var,yok,yok,yok,yok,kademe_6,bilinmiyor,bilinmiyor,bilinmiyor,100_125_m2,4_oda,orta_4_7_kat,1_banyo,yok,yok,yok,dusuk,dusuk,dusuk,yok,3_4_Milyon_TL_Arasi
Mardin,Kiziltepe,Satilik,31_ve_uzeri,1,bilinmiyor,bilinmiyor,yok,var,yok,yok,yok,yok,yok,yok,yok,yok,yok,yok,yok,yok,yok,yok,yok,yok,yok,yok,yok,yok,yok,yok,yok,yok,yok,yok,yok,yok,kademe_6,bilinmiyor,bilinmiyor,bilinmiyor,125_150_m2,4_oda,alcak_1_3_kat,1_banyo,yok,yok,yok,dusuk,yok,yok,yok,2_3_Milyon_TL_Arasi
Van,Ipekyolu,Satilik,1_5_arasi,1,Kombi,bilinmiyor,yok,var,var,var,yok,yok,yok,var,yok,yok,var,yok,yok,yok,yok,yok,yok,yok,yok,yok,yok,yok,yok,yok,yok,var,yok,yok,yok,yok,kademe_6,normal,bilinmiyor,bilinmiyor,75_100_m2,3_oda,orta_4_7_kat,1_banyo,dusuk,yok,dusuk,orta,yuksek,yuksek,yok,2_3_Milyon_TL_Arasi
Van,Ipekyolu,Satilik,11_15_arasi,En_Ust_Kat,Kombi_Dogalgaz,bilinmiyor,yok,var,yok,var,yok,yok,var,yok,var,yok,var,yok,yok,yok,yok,yok,yok,yok,yok,yok,yok,yok,yok,yok,yok,var,yok,yok,yok,yok,kademe_6,normal,normal,normal,100_125_m2,4_oda,orta_4_7_kat,1_banyo,yok,yok,yok,dusuk,orta,yuksek,yok,2_3_Milyon_TL_Arasi
Mardin,Artuklu,Satilik,1_5_arasi,4,Kombi,bilinmiyor,yok,var,yok,var,yok,var,yok,var,yok,yok,var,var,yok,yok,yok,yok,yok,yok,yok,yok,yok,yok,var,yok,yok,var,yok,yok,var,yok,kademe_6,iyi,iyi,bilinmiyor,150_200_m2,5_oda,orta_4_7_kat,2_banyo,yok,dusuk,dusuk,orta,yuksek,yuksek,yok,3_4_Milyon_TL_Arasi
Mardin,Nusaybin,Satilik,0,bilinmiyor,Yerden_Isitma,bilinmiyor,yok,var,yok,var,yok,yok,yok,yok,yok,yok,yok,yok,yok,yok,yok,yok,yok,yok,yok,yok,yok,yok,yok,yok,yok,yok,var,yok,yok,yok,kademe_6,bilinmiyor,normal,kotu,300_m2_ve_ustu,5_oda,alcak_1_3_kat,3_banyo_ve_ustu,yok,yok,yok,dusuk,yok,yok,yok,7_Bucuk_10_Milyon_TL_Arasi
Van,Ipekyolu,Satilik,0,3,Kombi,bilinmiyor,yok,var,yok,var,yok,var,yok,var,yok,yok,yok,yok,yok,yok,yok,yok,yok,yok,yok,yok,yok,yok,yok,yok,yok,yok,yok,yok,yok,yok,kademe_6,iyi,normal,normal,75_100_m2,3_oda,orta_4_7_kat,1_banyo,yok,yok,dusuk,dusuk,orta,yok,yok,3_4_Milyon_TL_Arasi
Adiyaman,Kahta,Satilik,6_10_arasi,4,Kombi_Dogalgaz,bilinmiyor,yok,yok,yok,yok,yok,var,var,var,var,yok,yok,yok,yok,yok,yok,yok,yok,yok,yok,yok,yok,yok,yok,yok,yok,yok,yok,yok,yok,yok,kademe_6,normal,iyi,bilinmiyor,150_200_m2,4_oda,orta_4_7_kat,1_banyo,yok,yok,yok,dusuk,yok,yok,yok,2_3_Milyon_TL_Arasi
Batman,Merkez,Satilik,0,1,Kombi,bilinmiyor,yok,var,var,var,yok,yok,yok,yok,yok,yok,yok,yok,yok,yok,yok,yok,yok,yok,yok,yok,yok,yok,yok,yok,yok,yok,yok,yok,yok,yok,kademe_6,bilinmiyor,bilinmiyor,bilinmiyor,125_150_m2,4_oda,yuksek_8_15_kat,1_banyo,yok,yok,yok,dusuk,yok,yok,yok,3_4_Milyon_TL_Arasi
Mardin,Artuklu,Satilik,1_5_arasi,8,Kombi,bilinmiyor,yok,var,var,var,yok,yok,yok,yok,yok,yok,yok,yok,yok,yok,yok,yok,yok,yok,yok,yok,yok,yok,yok,yok,yok,yok,yok,yok,yok,yok,kademe_6,iyi,iyi,bilinmiyor,200_300_m2,5_oda,yuksek_8_15_kat,2_banyo,yok,yok,yok,dusuk,yok,yok,yok,5_7_Bucuk_Milyon_TL_Arasi
Bingol,Merkez,Satilik,0,5,Kombi,bilinmiyor,yok,var,var,var,yok,yok,yok,yok,yok,yok,yok,yok,yok,yok,yok,yok,yok,yok,yok,yok,yok,yok,yok,yok,yok,yok,yok,yok,yok,yok,kademe_6,iyi,normal,kotu,150_200_m2,4_oda,orta_4_7_kat,1_banyo,yok,yok,yok,dusuk,dusuk,yok,yok,4_5_Milyon_TL_Arasi
Mardin,Artuklu,Satilik,11_15_arasi,3,Klima,bilinmiyor,yok,yok,var,var,yok,yok,var,var,yok,yok,yok,yok,yok,yok,yok,yok,yok,yok,yok,yok,yok,yok,yok,yok,yok,var,yok,yok,yok,yok,kademe_6,bilinmiyor,kotu,bilinmiyor,75_100_m2,2_oda,orta_4_7_kat,1_banyo,yok,yok,yok,dusuk,orta,orta,yok,1_5_Milyon_TL_Alti
Van,Tusba,Satilik,6_10_arasi,Bahce,isitma_yok,bilinmiyor,yok,yok,yok,var,var,var,yok,yok,yok,yok,yok,yok,yok,yok,yok,yok,yok,yok,yok,yok,yok,yok,yok,var,yok,yok,var,yok,yok,yok,kademe_6,bilinmiyor,bilinmiyor,bilinmiyor,200_300_m2,6_oda,alcak_1_3_kat,2_banyo,yok,yok,yok,dusuk,dusuk,yok,yok,10_Milyon_TL_Ustu
Kars,Merkez,Satilik,11_15_arasi,En_Ust_Kat,Kombi_Dogalgaz,bilinmiyor,yok,var,yok,var,yok,yok,var,yok,yok,yok,yok,yok,yok,yok,yok,yok,yok,yok,yok,yok,yok,yok,var,yok,yok,var,yok,yok,yok,yok,kademe_6,normal,normal,bilinmiyor,125_150_m2,4_oda,orta_4_7_kat,2_banyo,dusuk,yok,yok,dusuk,dusuk,dusuk,yok,1_5_2_Milyon_TL_Arasi
Bingol,Merkez,Satilik,11_15_arasi,Yuksek_Giris,Kombi,bilinmiyor,yok,var,yok,var,yok,yok,yok,yok,yok,yok,yok,yok,yok,yok,yok,yok,yok,yok,yok,yok,yok,yok,yok,yok,yok,yok,yok,yok,yok,yok,kademe_6,normal,bilinmiyor,normal,125_150_m2,4_oda,orta_4_7_kat,1_banyo,yok,yok,yok,dusuk,yok,yok,yok,3_4_Milyon_TL_Arasi
Van,Ercis,Satilik,1_5_arasi,2,Kombi_Dogalgaz,bilinmiyor,yok,yok,yok,yok,yok,var,yok,var,yok,yok,yok,yok,yok,yok,yok,yok,yok,yok,yok,yok,yok,yok,yok,yok,yok,yok,yok,yok,yok,yok,kademe_6,normal,normal,bilinmiyor,75_100_m2,3_oda,orta_4_7_kat,1_banyo,yok,yok,yok,dusuk,dusuk,yok,yok,2_3_Milyon_TL_Arasi
Van,Tusba,Satilik,11_15_arasi,Bahce,Kombi,bilinmiyor,yok,var,yok,yok,yok,var,yok,var,yok,yok,yok,yok,yok,var,yok,yok,yok,yok,yok,yok,yok,yok,var,yok,yok,var,yok,yok,yok,yok,kademe_6,normal,normal,bilinmiyor,150_200_m2,4_oda,bilinmiyor,1_banyo,yok,yok,dusuk,dusuk,orta,yuksek,yok,10_Milyon_TL_Ustu
Bitlis,Tatvan,Satilik,11_15_arasi,3,Kombi,bilinmiyor,yok,var,yok,var,yok,yok,yok,yok,yok,yok,yok,yok,yok,yok,yok,yok,yok,yok,yok,yok,yok,yok,yok,yok,yok,yok,yok,yok,yok,yok,kademe_6,normal,kotu,bilinmiyor,150_200_m2,4_oda,orta_4_7_kat,2_banyo,yok,yok,yok,dusuk,yok,yok,yok,2_3_Milyon_TL_Arasi
Bingol,Merkez,Satilik,11_15_arasi,4,Kombi,bilinmiyor,yok,var,var,var,yok,yok,yok,yok,yok,yok,yok,yok,yok,yok,yok,yok,yok,yok,yok,yok,yok,yok,yok,yok,yok,yok,yok,yok,yok,yok,kademe_6,normal,iyi,bilinmiyor,200_300_m2,5_oda,orta_4_7_kat,2_banyo,yok,yok,yok,dusuk,yok,yok,yok,4_5_Milyon_TL_Arasi
Adiyaman,Merkez,Satilik,0,Villa_Kati,Kombi,bilinmiyor,yok,var,yok,var,yok,yok,yok,yok,yok,yok,yok,yok,yok,yok,yok,yok,yok,yok,yok,yok,yok,yok,yok,yok,yok,yok,yok,yok,yok,yok,kademe_6,bilinmiyor,bilinmiyor,bilinmiyor,200_300_m2,5_oda,alcak_1_3_kat,2_banyo,yok,yok,yok,dusuk,yok,yok,yok,2_3_Milyon_TL_Arasi
Van,Ipekyolu,Satilik,1_5_arasi,3,Kombi,bilinmiyor,yok,var,var,yok,var,yok,yok,yok,var,yok,yok,yok,yok,yok,yok,yok,yok,yok,yok,yok,yok,yok,yok,yok,yok,yok,yok,yok,yok,yok,kademe_6,iyi,iyi,bilinmiyor,50_75_m2,2_oda,yuksek_8_15_kat,1_banyo,yok,yok,yok,dusuk,yok,dusuk,yok,1_5_2_Milyon_TL_Arasi
Van,Ipekyolu,Satilik,6_10_arasi,6,Kombi,bilinmiyor,yok,var,var,var,yok,yok,var,var,yok,yok,var,yok,yok,var,yok,yok,yok,yok,yok,yok,yok,yok,yok,yok,yok,var,var,yok,yok,yok,kademe_6,iyi,normal,iyi,200_300_m2,4_oda,orta_4_7_kat,1_banyo,dusuk,dusuk,dusuk,orta,yuksek,orta,yok,4_5_Milyon_TL_Arasi
Van,Edremit,Satilik,11_15_arasi,5,Kombi,bilinmiyor,yok,var,var,var,yok,yok,yok,var,var,yok,yok,yok,yok,yok,yok,yok,yok,yok,yok,yok,yok,yok,var,var,yok,var,yok,yok,yok,yok,kademe_6,normal,kotu,bilinmiyor,125_150_m2,4_oda,orta_4_7_kat,1_banyo,yok,yok,yok,dusuk,orta,yok,yok,2_3_Milyon_TL_Arasi
Siirt,Merkez,Satilik,0,6,Yerden_Isitma,bilinmiyor,yok,var,yok,yok,yok,yok,yok,yok,yok,yok,yok,yok,yok,yok,yok,yok,yok,yok,yok,yok,yok,yok,yok,yok,yok,yok,yok,yok,yok,yok,kademe_6,kotu,normal,kotu,50_75_m2,2_oda,orta_4_7_kat,1_banyo,yok,yok,yok,dusuk,yok,yok,yok,1_5_Milyon_TL_Alti
Van,Edremit,Satilik,0,Ara_Kat,Kombi_Dogalgaz,bilinmiyor,yok,var,var,var,yok,var,yok,yok,yok,yok,yok,var,yok,var,yok,yok,yok,yok,var,yok,yok,yok,yok,var,yok,var,yok,yok,yok,yok,kademe_6,bilinmiyor,bilinmiyor,bilinmiyor,150_200_m2,4_oda,orta_4_7_kat,2_banyo,dusuk,dusuk,yok,dusuk,orta,orta,yok,5_7_Bucuk_Milyon_TL_Arasi
Van,Ipekyolu,Satilik,6_10_arasi,6,Kombi,bilinmiyor,yok,yok,yok,yok,yok,yok,yok,yok,yok,yok,yok,yok,yok,yok,yok,yok,yok,yok,yok,yok,yok,yok,yok,yok,yok,yok,yok,yok,yok,yok,kademe_6,iyi,iyi,bilinmiyor,200_300_m2,5_oda,yuksek_8_15_kat,1_banyo,yok,yok,yok,dusuk,yok,yok,yok,5_7_Bucuk_Milyon_TL_Arasi
Van,Tusba,Satilik,11_15_arasi,3,Merkezi,bilinmiyor,yok,var,var,var,var,var,var,yok,yok,yok,var,yok,yok,yok,yok,yok,yok,yok,yok,yok,yok,yok,yok,var,yok,yok,yok,yok,yok,yok,kademe_6,kotu,kotu,kotu,125_150_m2,4_oda,orta_4_7_kat,1_banyo,dusuk,yok,yok,dusuk,yok,orta,yok,3_4_Milyon_TL_Arasi
Diyarbakir,Silvan,Satilik,0,2,Kombi,bilinmiyor,yok,var,var,var,yok,yok,yok,yok,yok,yok,yok,yok,yok,yok,yok,yok,yok,yok,yok,yok,yok,yok,yok,yok,yok,yok,yok,yok,yok,yok,kademe_6,normal,normal,bilinmiyor,150_200_m2,4_oda,yuksek_8_15_kat,2_banyo,yok,yok,yok,dusuk,dusuk,yok,yok,3_4_Milyon_TL_Arasi
Bingol,Merkez,Satilik,6_10_arasi,3,Kombi,bilinmiyor,yok,var,var,var,yok,yok,yok,yok,yok,yok,yok,yok,yok,yok,yok,yok,yok,yok,yok,yok,yok,yok,yok,yok,yok,yok,yok,yok,yok,yok,kademe_6,normal,normal,normal,125_150_m2,4_oda,orta_4_7_kat,1_banyo,yok,yok,yok,yok,yok,yok,yok,4_5_Milyon_TL_Arasi
Mardin,Nusaybin,Satilik,6_10_arasi,7,isitma_yok,bilinmiyor,yok,var,var,var,yok,yok,var,var,yok,yok,var,var,yok,yok,yok,yok,yok,yok,yok,yok,yok,yok,yok,yok,yok,var,yok,yok,yok,yok,kademe_6,iyi,normal,kotu,150_200_m2,4_oda,yuksek_8_15_kat,2_banyo,yok,dusuk,yok,orta,orta,yuksek,yok,4_5_Milyon_TL_Arasi
Mardin,Artuklu,Satilik,6_10_arasi,5,Kombi,bilinmiyor,yok,var,var,var,yok,yok,yok,var,yok,yok,var,var,yok,var,yok,yok,yok,yok,yok,yok,yok,yok,var,yok,yok,var,yok,yok,yok,yok,kademe_6,iyi,normal,normal,200_300_m2,5_oda,yuksek_8_15_kat,2_banyo,dusuk,dusuk,yok,dusuk,orta,yuksek,yok,5_7_Bucuk_Milyon_TL_Arasi
Van,Ipekyolu,Satilik,1_5_arasi,5,Kombi_Dogalgaz,bilinmiyor,yok,var,var,yok,var,yok,yok,yok,yok,yok,yok,yok,yok,yok,yok,yok,yok,yok,yok,yok,yok,yok,yok,yok,yok,yok,yok,yok,yok,yok,kademe_6,normal,bilinmiyor,normal,50_75_m2,3_oda,orta_4_7_kat,1_banyo,yok,yok,yok,dusuk,yok,yok,yok,2_3_Milyon_TL_Arasi
Bingol,Merkez,Satilik,11_15_arasi,Yuksek_Giris,Kombi_Dogalgaz,bilinmiyor,yok,yok,var,var,yok,yok,yok,yok,yok,yok,yok,yok,yok,yok,yok,yok,yok,yok,yok,yok,yok,yok,yok,yok,yok,yok,yok,yok,yok,yok,kademe_6,normal,kotu,normal,125_150_m2,4_oda,yuksek_8_15_kat,1_banyo,yok,yok,yok,yok,yok,yok,yok,3_4_Milyon_TL_Arasi
Van,Ercis,Satilik,11_15_arasi,Ara_Kat,Kombi_Dogalgaz,bilinmiyor,yok,yok,yok,yok,yok,yok,yok,yok,yok,yok,yok,yok,yok,yok,yok,yok,yok,yok,yok,yok,yok,yok,yok,yok,yok,yok,yok,yok,yok,yok,kademe_6,normal,iyi,normal,75_100_m2,3_oda,orta_4_7_kat,1_banyo,yok,yok,yok,dusuk,yok,yok,yok,2_3_Milyon_TL_Arasi
Mardin,Midyat,Satilik,0,Ara_Kat,Kombi_Dogalgaz,bilinmiyor,yok,var,var,var,yok,var,var,var,var,yok,var,yok,yok,var,yok,yok,yok,yok,yok,yok,yok,yok,var,yok,yok,var,yok,yok,yok,yok,kademe_6,bilinmiyor,iyi,iyi,100_125_m2,3_oda,yuksek_8_15_kat,1_banyo,orta,yok,yok,orta,orta,yuksek,yok,3_4_Milyon_TL_Arasi
Mardin,Artuklu,Satilik,1_5_arasi,1,Kombi,bilinmiyor,yok,var,yok,var,yok,yok,yok,yok,yok,yok,var,yok,yok,yok,yok,yok,yok,yok,yok,yok,yok,yok,yok,yok,yok,var,yok,yok,yok,yok,kademe_6,iyi,bilinmiyor,bilinmiyor,125_150_m2,3_oda,yuksek_8_15_kat,1_banyo,dusuk,yok,yok,dusuk,yuksek,yuksek,yok,2_3_Milyon_TL_Arasi
Adiyaman,Merkez,Satilik,0,4,Kombi,bilinmiyor,yok,var,yok,var,yok,yok,yok,yok,yok,yok,yok,yok,yok,yok,yok,yok,yok,yok,yok,yok,yok,yok,yok,yok,yok,yok,yok,yok,yok,yok,kademe_6,bilinmiyor,normal,bilinmiyor,100_125_m2,3_oda,orta_4_7_kat,1_banyo,yok,yok,yok,dusuk,yok,yok,yok,3_4_Milyon_TL_Arasi
Mardin,Kiziltepe,Satilik,6_10_arasi,Ara_Kat,Kombi,bilinmiyor,yok,var,yok,yok,yok,yok,yok,yok,yok,yok,yok,yok,yok,yok,yok,yok,yok,yok,yok,yok,yok,yok,yok,yok,yok,yok,yok,yok,yok,yok,kademe_6,normal,kotu,iyi,200_300_m2,4_oda,orta_4_7_kat,1_banyo,yok,yok,yok,dusuk,yok,yok,yok,2_3_Milyon_TL_Arasi
Diyarbakir,Baglar,Satilik,0,2,Merkezi,bilinmiyor,yok,var,var,var,yok,yok,yok,yok,yok,yok,yok,yok,yok,yok,yok,yok,yok,yok,yok,yok,yok,yok,yok,yok,yok,yok,yok,yok,yok,yok,kademe_6,normal,bilinmiyor,bilinmiyor,100_125_m2,4_oda,orta_4_7_kat,1_banyo,yok,yok,yok,dusuk,yok,yok,yok,2_3_Milyon_TL_Arasi
Mardin,Artuklu,Satilik,6_10_arasi,2,Merkezi,bilinmiyor,yok,var,yok,var,yok,yok,yok,yok,yok,yok,var,var,yok,yok,yok,yok,yok,yok,yok,yok,yok,yok,var,yok,yok,var,yok,yok,yok,yok,kademe_6,normal,iyi,bilinmiyor,150_200_m2,4_oda,yuksek_8_15_kat,2_banyo,dusuk,yok,dusuk,dusuk,orta,yuksek,yok,4_5_Milyon_TL_Arasi
Van,Edremit,Satilik,6_10_arasi,5,Kombi,bilinmiyor,yok,var,var,var,yok,yok,var,var,yok,yok,var,var,yok,var,yok,yok,yok,yok,yok,yok,yok,yok,yok,var,yok,var,yok,yok,yok,yok,kademe_6,kotu,normal,bilinmiyor,150_200_m2,4_oda,orta_4_7_kat,2_banyo,dusuk,yok,dusuk,orta,yuksek,yuksek,yok,5_7_Bucuk_Milyon_TL_Arasi
Mardin,Midyat,Satilik,1_5_arasi,Yuksek_Giris,Kombi_Dogalgaz,bilinmiyor,yok,var,var,var,yok,yok,var,yok,var,yok,var,var,yok,var,yok,yok,yok,var,yok,yok,yok,yok,yok,yok,yok,var,yok,yok,yok,yok,kademe_6,iyi,iyi,iyi,150_200_m2,4_oda,orta_4_7_kat,2_banyo,yok,yok,yok,orta,orta,yuksek,yok,3_4_Milyon_TL_Arasi
Van,Ipekyolu,Satilik,11_15_arasi,2,Kombi,bilinmiyor,yok,var,var,var,yok,yok,yok,yok,var,yok,var,yok,yok,yok,yok,yok,yok,yok,yok,yok,yok,yok,yok,yok,yok,var,yok,yok,yok,yok,kademe_6,iyi,normal,iyi,150_200_m2,4_oda,yuksek_8_15_kat,1_banyo,yok,yok,dusuk,dusuk,orta,dusuk,yok,4_5_Milyon_TL_Arasi
Van,Ipekyolu,Satilik,1_5_arasi,2,Kombi,bilinmiyor,yok,var,var,var,yok,var,yok,var,var,yok,var,var,yok,var,yok,yok,yok,yok,yok,yok,yok,yok,var,yok,yok,var,yok,yok,yok,yok,kademe_6,iyi,normal,normal,200_300_m2,5_oda,orta_4_7_kat,2_banyo,dusuk,yok,dusuk,orta,yuksek,yuksek,yok,5_7_Bucuk_Milyon_TL_Arasi
Adiyaman,Merkez,Satilik,16_20_arasi,bilinmiyor,Kombi_Dogalgaz,bilinmiyor,yok,yok,yok,var,yok,yok,yok,yok,yok,yok,yok,yok,yok,yok,yok,yok,yok,yok,yok,yok,yok,yok,yok,yok,yok,yok,yok,yok,yok,yok,kademe_6,normal,normal,bilinmiyor,200_300_m2,4_oda,alcak_1_3_kat,2_banyo,yok,yok,yok,dusuk,yok,yok,yok,3_4_Milyon_TL_Arasi
Adiyaman,Merkez,Satilik,0,3,Kombi,bilinmiyor,yok,var,yok,var,yok,var,yok,var,var,yok,var,yok,yok,yok,yok,yok,yok,yok,yok,yok,yok,yok,yok,yok,yok,yok,yok,yok,yok,yok,kademe_6,iyi,normal,bilinmiyor,150_200_m2,5_oda,yuksek_8_15_kat,2_banyo,dusuk,yok,yok,dusuk,orta,yuksek,yok,7_Bucuk_10_Milyon_TL_Arasi
Diyarbakir,Kayapinar,Satilik,1_5_arasi,8,Merkezi,bilinmiyor,yok,var,var,var,yok,yok,yok,yok,yok,yok,yok,yok,yok,yok,yok,yok,yok,yok,yok,yok,yok,yok,yok,yok,yok,var,yok,yok,yok,yok,kademe_6,iyi,iyi,bilinmiyor,200_300_m2,5_oda,yuksek_8_15_kat,2_banyo,yok,yok,yok,dusuk,dusuk,dusuk,yok,10_Milyon_TL_Ustu
Mardin,Nusaybin,Satilik,6_10_arasi,5,Merkezi,bilinmiyor,yok,var,yok,yok,yok,yok,yok,yok,yok,yok,yok,yok,yok,yok,yok,yok,yok,yok,yok,yok,yok,yok,yok,yok,yok,yok,yok,yok,yok,yok,kademe_6,normal,normal,normal,125_150_m2,3_oda,orta_4_7_kat,2_banyo,yok,yok,yok,dusuk,yok,yok,yok,3_4_Milyon_TL_Arasi
Van,Ipekyolu,Satilik,11_15_arasi,bilinmiyor,Kombi_Dogalgaz,bilinmiyor,yok,var,yok,var,yok,yok,var,var,yok,yok,var,yok,yok,yok,yok,yok,yok,yok,yok,yok,yok,yok,yok,yok,yok,yok,yok,yok,yok,yok,kademe_6,bilinmiyor,kotu,bilinmiyor,150_200_m2,4_oda,orta_4_7_kat,1_banyo,yok,yok,yok,dusuk,orta,yuksek,yok,7_Bucuk_10_Milyon_TL_Arasi
Adiyaman,Merkez,Satilik,11_15_arasi,Yuksek_Giris,Kombi_Dogalgaz,bilinmiyor,yok,yok,yok,var,yok,yok,var,yok,var,yok,yok,yok,yok,yok,yok,yok,yok,yok,yok,yok,yok,yok,yok,yok,yok,yok,yok,yok,yok,yok,kademe_6,normal,normal,bilinmiyor,125_150_m2,5_oda,orta_4_7_kat,1_banyo,yok,yok,yok,dusuk,yok,yok,yok,2_3_Milyon_TL_Arasi
Van,Ipekyolu,Satilik,6_10_arasi,3,Kombi,bilinmiyor,yok,var,var,var,var,yok,var,yok,yok,yok,yok,yok,yok,yok,yok,yok,yok,yok,yok,yok,yok,yok,yok,var,yok,var,yok,yok,yok,yok,kademe_6,normal,normal,bilinmiyor,50_75_m2,2_oda,orta_4_7_kat,1_banyo,yok,yok,yok,dusuk,dusuk,dusuk,yok,1_5_2_Milyon_TL_Arasi
Van,Ipekyolu,Satilik,1_5_arasi,3,Kombi,bilinmiyor,yok,var,yok,yok,yok,yok,yok,yok,yok,yok,yok,yok,yok,yok,yok,yok,yok,yok,yok,yok,yok,yok,yok,yok,yok,yok,yok,yok,yok,yok,kademe_6,bilinmiyor,bilinmiyor,bilinmiyor,50_75_m2,2_oda,orta_4_7_kat,1_banyo,yok,yok,yok,dusuk,yok,yok,yok,1_5_Milyon_TL_Alti
Mardin,Artuklu,Satilik,1_5_arasi,3,Kombi,bilinmiyor,yok,var,var,var,var,yok,yok,var,yok,yok,var,yok,yok,yok,yok,yok,yok,yok,yok,yok,yok,yok,var,yok,yok,var,yok,yok,yok,yok,kademe_6,kotu,normal,kotu,50_75_m2,2_oda,orta_4_7_kat,1_banyo,yok,yok,dusuk,orta,orta,yuksek,yok,1_5_2_Milyon_TL_Arasi
Diyarbakir,Yenisehir,Satilik,6_10_arasi,5,Kombi_Dogalgaz,bilinmiyor,yok,yok,yok,var,yok,yok,yok,yok,yok,yok,yok,yok,yok,yok,yok,yok,yok,yok,yok,yok,yok,yok,yok,yok,yok,yok,yok,yok,yok,yok,kademe_6,bilinmiyor,bilinmiyor,bilinmiyor,100_125_m2,3_oda,yuksek_8_15_kat,1_banyo,yok,yok,yok,dusuk,yok,yok,yok,2_3_Milyon_TL_Arasi
Mardin,Midyat,Satilik,1_5_arasi,Giris,Kombi_Dogalgaz,bilinmiyor,yok,yok,yok,var,var,yok,yok,var,yok,yok,var,yok,yok,var,yok,yok,yok,yok,yok,yok,yok,yok,yok,yok,yok,var,yok,yok,yok,yok,kademe_6,kotu,iyi,kotu,50_75_m2,2_oda,orta_4_7_kat,1_banyo,dusuk,yok,yok,orta,orta,yuksek,yok,1_5_2_Milyon_TL_Arasi
Gumushane,Merkez,Satilik,0,7,Kombi,bilinmiyor,yok,var,var,var,yok,yok,yok,yok,yok,yok,yok,yok,yok,yok,yok,yok,yok,yok,yok,yok,yok,yok,yok,yok,yok,var,yok,yok,yok,yok,kademe_6,iyi,bilinmiyor,normal,125_150_m2,4_oda,yuksek_8_15_kat,2_banyo,yok,yok,yok,dusuk,yok,yok,yok,3_4_Milyon_TL_Arasi
Mardin,Artuklu,Satilik,1_5_arasi,8,Kombi,bilinmiyor,yok,var,var,var,yok,yok,var,var,yok,yok,var,yok,yok,var,yok,yok,yok,yok,yok,yok,yok,yok,var,var,yok,yok,yok,yok,yok,yok,kademe_6,iyi,iyi,bilinmiyor,150_200_m2,4_oda,yuksek_8_15_kat,2_banyo,dusuk,dusuk,yok,dusuk,yok,yuksek,yok,5_7_Bucuk_Milyon_TL_Arasi
Adiyaman,Merkez,Satilik,0,Bahce,Kombi,bilinmiyor,yok,yok,yok,var,yok,yok,yok,yok,yok,yok,yok,yok,yok,yok,yok,yok,yok,yok,yok,yok,yok,yok,yok,yok,yok,yok,yok,yok,yok,yok,kademe_6,bilinmiyor,bilinmiyor,bilinmiyor,300_m2_ve_ustu,6_oda,orta_4_7_kat,2_banyo,yok,yok,yok,dusuk,yok,yok,yok,10_Milyon_TL_Ustu
Batman,Merkez,Satilik,0,Yuksek_Giris,Kombi,bilinmiyor,yok,var,var,var,yok,yok,var,var,yok,yok,var,yok,yok,yok,yok,yok,yok,yok,yok,yok,yok,yok,yok,yok,yok,var,yok,yok,yok,yok,kademe_6,iyi,iyi,iyi,100_125_m2,3_oda,orta_4_7_kat,1_banyo,dusuk,yok,yok,dusuk,orta,yuksek,yok,2_3_Milyon_TL_Arasi
Mardin,Kiziltepe,Satilik,11_15_arasi,1,bilinmiyor,bilinmiyor,yok,var,yok,yok,yok,yok,yok,yok,yok,yok,yok,yok,yok,yok,yok,yok,yok,yok,yok,yok,yok,yok,yok,yok,yok,yok,yok,yok,yok,yok,kademe_6,bilinmiyor,bilinmiyor,bilinmiyor,150_200_m2,4_oda,alcak_1_3_kat,2_banyo,yok,yok,yok,dusuk,yok,yok,yok,4_5_Milyon_TL_Arasi
Mardin,Artuklu,Satilik,1_5_arasi,Bahce,Kombi,bilinmiyor,yok,var,var,yok,var,yok,yok,yok,yok,yok,yok,yok,yok,yok,yok,yok,yok,yok,yok,yok,yok,yok,yok,yok,yok,yok,yok,yok,yok,yok,kademe_6,iyi,iyi,normal,50_75_m2,2_oda,orta_4_7_kat,1_banyo,yok,yok,yok,dusuk,yok,yok,yok,1_5_Milyon_TL_Alti
Diyarbakir,Kayapinar,Satilik,1_5_arasi,2,Kombi,bilinmiyor,yok,var,var,var,yok,yok,yok,yok,yok,yok,yok,yok,yok,yok,yok,yok,yok,yok,yok,yok,yok,yok,yok,yok,yok,yok,yok,yok,yok,yok,kademe_6,normal,normal,normal,100_125_m2,3_oda,yuksek_8_15_kat,1_banyo,yok,yok,yok,yok,yok,yok,yok,4_5_Milyon_TL_Arasi
Van,Ipekyolu,Satilik,6_10_arasi,3,Kombi_Dogalgaz,bilinmiyor,yok,yok,yok,yok,yok,var,yok,var,yok,yok,yok,yok,yok,yok,yok,yok,yok,yok,yok,yok,yok,yok,yok,yok,yok,yok,yok,yok,yok,yok,kademe_6,normal,normal,bilinmiyor,50_75_m2,2_oda,orta_4_7_kat,1_banyo,yok,yok,yok,dusuk,yok,yok,yok,1_5_Milyon_TL_Alti
Adiyaman,Merkez,Satilik,0,7,Yerden_Isitma,bilinmiyor,yok,var,yok,var,yok,yok,var,var,var,yok,var,var,yok,yok,yok,yok,yok,yok,yok,yok,yok,yok,yok,yok,yok,var,yok,yok,yok,yok,kademe_6,normal,normal,bilinmiyor,200_300_m2,5_oda,yuksek_8_15_kat,2_banyo,dusuk,dusuk,dusuk,yok,orta,orta,yok,7_Bucuk_10_Milyon_TL_Arasi
Van,Edremit,Satilik,6_10_arasi,2,Kombi_Dogalgaz,bilinmiyor,yok,yok,yok,yok,var,yok,yok,yok,var,yok,yok,yok,yok,yok,yok,yok,yok,yok,yok,yok,yok,yok,yok,yok,yok,yok,yok,yok,yok,yok,kademe_6,kotu,normal,normal,50_75_m2,2_oda,yuksek_8_15_kat,1_banyo,yok,yok,yok,dusuk,yok,yok,yok,1_5_2_Milyon_TL_Arasi
Mardin,Artuklu,Satilik,6_10_arasi,5,Kombi,bilinmiyor,yok,var,yok,var,yok,yok,yok,yok,yok,yok,var,yok,yok,var,yok,yok,yok,yok,yok,yok,yok,yok,yok,yok,yok,yok,yok,yok,yok,yok,kademe_6,normal,kotu,kotu,50_75_m2,3_oda,yuksek_8_15_kat,1_banyo,dusuk,yok,yok,dusuk,yok,yuksek,yok,2_3_Milyon_TL_Arasi
Adiyaman,Merkez,Satilik,0,4,Kombi,bilinmiyor,yok,var,var,var,yok,yok,yok,yok,yok,yok,yok,yok,yok,yok,yok,yok,yok,yok,yok,yok,yok,yok,yok,yok,yok,yok,yok,yok,yok,yok,kademe_6,iyi,iyi,kotu,100_125_m2,3_oda,orta_4_7_kat,1_banyo,yok,yok,yok,yok,yok,yok,yok,2_3_Milyon_TL_Arasi
Diyarbakir,Ergani,Satilik,11_15_arasi,1,bilinmiyor,bilinmiyor,yok,yok,yok,yok,yok,yok,yok,yok,yok,yok,yok,yok,yok,yok,yok,yok,yok,yok,yok,yok,yok,yok,yok,yok,yok,yok,yok,yok,yok,yok,kademe_6,kotu,normal,bilinmiyor,300_m2_ve_ustu,7_oda_ve_ustu,alcak_1_3_kat,2_banyo,yok,yok,yok,dusuk,yok,yok,yok,10_Milyon_TL_Ustu
Van,Ipekyolu,Satilik,6_10_arasi,5,Kombi_Dogalgaz,bilinmiyor,yok,var,var,var,yok,yok,var,var,yok,yok,var,var,yok,yok,yok,yok,yok,yok,yok,yok,yok,yok,yok,yok,yok,var,yok,yok,yok,yok,kademe_6,normal,normal,bilinmiyor,200_300_m2,5_oda,orta_4_7_kat,2_banyo,dusuk,dusuk,yok,dusuk,dusuk,orta,yok,7_Bucuk_10_Milyon_TL_Arasi
Adiyaman,Merkez,Satilik,0,5,Kombi,bilinmiyor,yok,var,yok,var,yok,yok,yok,yok,yok,yok,yok,yok,yok,yok,yok,yok,yok,yok,yok,yok,yok,yok,yok,yok,yok,yok,yok,yok,yok,yok,kademe_6,normal,bilinmiyor,bilinmiyor,100_125_m2,3_oda,orta_4_7_kat,1_banyo,yok,yok,yok,dusuk,yok,yok,yok,4_5_Milyon_TL_Arasi
Van,Ipekyolu,Satilik,1_5_arasi,3,Kombi,bilinmiyor,yok,var,yok,yok,yok,yok,var,yok,var,yok,yok,yok,yok,yok,yok,yok,yok,yok,yok,yok,yok,yok,var,yok,yok,yok,yok,yok,yok,yok,kademe_6,bilinmiyor,bilinmiyor,bilinmiyor,200_300_m2,5_oda,orta_4_7_kat,2_banyo,yok,yok,yok,dusuk,orta,orta,yok,5_7_Bucuk_Milyon_TL_Arasi
Van,Ercis,Satilik,0,3,Kombi_Dogalgaz,bilinmiyor,yok,yok,yok,yok,yok,var,var,var,var,yok,yok,yok,yok,yok,yok,yok,yok,yok,yok,yok,yok,yok,yok,yok,yok,yok,yok,yok,yok,yok,kademe_6,kotu,normal,bilinmiyor,50_75_m2,3_oda,orta_4_7_kat,1_banyo,yok,yok,yok,dusuk,yok,yok,yok,2_3_Milyon_TL_Arasi
Van,Edremit,Satilik,0,bilinmiyor,Yerden_Isitma,bilinmiyor,yok,yok,yok,var,yok,var,var,var,var,yok,yok,yok,yok,yok,yok,yok,yok,yok,yok,yok,yok,yok,yok,yok,yok,yok,yok,yok,yok,var,kademe_6,iyi,normal,bilinmiyor,300_m2_ve_ustu,7_oda_ve_ustu,orta_4_7_kat,3_banyo_ve_ustu,yok,yok,yok,dusuk,yok,yok,yok,10_Milyon_TL_Ustu
Mardin,Midyat,Satilik,0,3,Kombi_Dogalgaz,bilinmiyor,yok,var,var,var,yok,var,yok,yok,var,yok,var,var,yok,var,yok,yok,yok,yok,yok,yok,yok,yok,var,yok,yok,var,yok,yok,yok,yok,kademe_6,normal,normal,iyi,125_150_m2,3_oda,yuksek_8_15_kat,2_banyo,orta,yok,yok,orta,dusuk,yuksek,yok,4_5_Milyon_TL_Arasi
Mardin,Artuklu,Satilik,6_10_arasi,Bodrum,Kombi,bilinmiyor,yok,var,yok,var,yok,yok,yok,var,yok,yok,var,yok,yok,yok,yok,yok,yok,yok,yok,yok,yok,yok,var,yok,yok,var,yok,yok,yok,yok,kademe_6,normal,bilinmiyor,bilinmiyor,125_150_m2,3_oda,yuksek_8_15_kat,1_banyo,yok,yok,dusuk,dusuk,yuksek,yuksek,yok,2_3_Milyon_TL_Arasi
Bingol,Merkez,Satilik,6_10_arasi,2,Kombi,bilinmiyor,yok,var,var,var,yok,yok,yok,yok,yok,yok,yok,yok,yok,yok,yok,yok,yok,yok,yok,yok,yok,yok,yok,yok,yok,yok,yok,yok,yok,yok,kademe_6,iyi,normal,normal,150_200_m2,4_oda,orta_4_7_kat,1_banyo,yok,yok,yok,dusuk,yok,yok,yok,4_5_Milyon_TL_Arasi
Mardin,Midyat,Satilik,6_10_arasi,4,Kombi,bilinmiyor,yok,var,var,var,yok,yok,yok,yok,yok,yok,var,yok,yok,var,yok,yok,yok,yok,yok,yok,yok,yok,yok,yok,yok,yok,yok,yok,yok,yok,kademe_6,iyi,normal,bilinmiyor,100_125_m2,3_oda,orta_4_7_kat,1_banyo,dusuk,yok,dusuk,orta,yuksek,yuksek,yok,3_4_Milyon_TL_Arasi
Van,Ipekyolu,Satilik,1_5_arasi,2,Yerden_Isitma,bilinmiyor,yok,var,var,var,yok,yok,var,yok,var,yok,var,var,yok,var,yok,yok,yok,yok,yok,yok,yok,yok,var,yok,yok,yok,yok,yok,yok,yok,kademe_6,bilinmiyor,bilinmiyor,bilinmiyor,150_200_m2,4_oda,yuksek_8_15_kat,2_banyo,dusuk,yok,yok,orta,yok,yuksek,yok,5_7_Bucuk_Milyon_TL_Arasi
Van,Tusba,Satilik,0,Bahce,Kat_Kaloriferi,bilinmiyor,yok,var,yok,var,yok,var,var,var,var,yok,var,yok,yok,yok,var,yok,yok,yok,yok,yok,yok,yok,var,var,yok,yok,var,yok,yok,yok,kademe_6,bilinmiyor,bilinmiyor,bilinmiyor,200_300_m2,4_oda,alcak_1_3_kat,1_banyo,yok,yok,yok,dusuk,dusuk,dusuk,yok,10_Milyon_TL_Ustu
Diyarbakir,Sur,Satilik,1_5_arasi,Bahce,Kombi,Kiler,yok,yok,yok,var,yok,var,var,var,var,yok,yok,var,yok,yok,yok,yok,yok,yok,yok,yok,yok,yok,var,yok,yok,var,var,yok,yok,yok,kademe_6,iyi,iyi,bilinmiyor,300_m2_ve_ustu,6_oda,alcak_1_3_kat,3_banyo_ve_ustu,dusuk,dusuk,yok,dusuk,yok,yuksek,yok,10_Milyon_TL_Ustu
Van,Ipekyolu,Satilik,0,4,Dogalgaz_Sobasi,bilinmiyor,yok,var,yok,var,yok,yok,var,yok,yok,yok,yok,yok,yok,yok,yok,yok,yok,yok,yok,yok,yok,yok,yok,yok,yok,var,yok,yok,yok,yok,kademe_6,iyi,bilinmiyor,normal,75_100_m2,2_oda,orta_4_7_kat,1_banyo,yok,yok,yok,orta,dusuk,yok,yok,2_3_Milyon_TL_Arasi
Batman,Merkez,Satilik,0,3,Yerden_Isitma,bilinmiyor,yok,var,var,var,yok,yok,var,var,yok,yok,var,var,yok,var,yok,yok,yok,yok,var,yok,yok,yok,var,yok,yok,var,yok,yok,yok,yok,kademe_6,iyi,iyi,bilinmiyor,150_200_m2,4_oda,orta_4_7_kat,2_banyo,dusuk,dusuk,dusuk,orta,yuksek,yuksek,yok,7_Bucuk_10_Milyon_TL_Arasi
Batman,Merkez,Satilik,1_5_arasi,3,Kombi_Dogalgaz,bilinmiyor,yok,var,yok,yok,yok,yok,var,var,var,yok,yok,yok,yok,yok,yok,yok,yok,yok,yok,yok,yok,yok,yok,yok,yok,yok,yok,yok,yok,yok,kademe_6,iyi,iyi,bilinmiyor,150_200_m2,5_oda,orta_4_7_kat,2_banyo,yok,yok,yok,dusuk,dusuk,yok,yok,7_Bucuk_10_Milyon_TL_Arasi
Bingol,Merkez,Satilik,16_20_arasi,2,Kombi,bilinmiyor,yok,var,yok,var,yok,yok,yok,yok,yok,yok,yok,yok,yok,yok,yok,yok,yok,yok,yok,yok,yok,yok,yok,yok,yok,yok,yok,yok,yok,yok,kademe_6,normal,normal,kotu,100_125_m2,4_oda,orta_4_7_kat,1_banyo,yok,yok,yok,dusuk,yok,yok,yok,3_4_Milyon_TL_Arasi
Van,Edremit,Satilik,6_10_arasi,Yuksek_Giris,Kombi,bilinmiyor,yok,var,var,var,yok,yok,var,var,yok,yok,yok,yok,yok,yok,yok,yok,yok,yok,yok,yok,yok,yok,yok,yok,yok,yok,yok,yok,yok,yok,kademe_6,normal,normal,normal,100_125_m2,4_oda,yuksek_8_15_kat,1_banyo,yok,yok,yok,dusuk,dusuk,yok,yok,3_4_Milyon_TL_Arasi
Van,Ercis,Satilik,0,4,Kombi_Dogalgaz,bilinmiyor,yok,yok,var,yok,yok,yok,var,yok,var,yok,yok,yok,yok,yok,yok,yok,yok,yok,yok,yok,yok,yok,yok,yok,yok,yok,yok,yok,yok,yok,kademe_6,bilinmiyor,iyi,bilinmiyor,75_100_m2,3_oda,orta_4_7_kat,1_banyo,yok,yok,yok,dusuk,yok,yok,yok,2_3_Milyon_TL_Arasi
Mardin,Artuklu,Satilik,0,Ara_Kat,Kombi_Dogalgaz,bilinmiyor,yok,var,var,yok,var,yok,yok,var,yok,yok,var,yok,yok,yok,yok,yok,yok,var,yok,yok,yok,yok,yok,yok,yok,var,yok,yok,yok,yok,kademe_6,kotu,iyi,bilinmiyor,50_75_m2,3_oda,cok_yuksek_16_ustu_kat,1_banyo,orta,yok,yok,dusuk,dusuk,yuksek,yok,1_5_2_Milyon_TL_Arasi
Diyarbakir,Sur,Satilik,1_5_arasi,Bahce,Kombi,bilinmiyor,yok,var,yok,var,yok,var,var,var,var,yok,yok,var,yok,yok,yok,yok,yok,yok,var,yok,yok,yok,var,yok,yok,var,var,yok,yok,yok,kademe_6,normal,bilinmiyor,bilinmiyor,200_300_m2,5_oda,alcak_1_3_kat,2_banyo,dusuk,dusuk,yok,orta,dusuk,yuksek,yok,10_Milyon_TL_Ustu
Agri,Merkez,Satilik,1_5_arasi,5,Kombi_Dogalgaz,bilinmiyor,yok,yok,yok,yok,yok,yok,yok,yok,yok,yok,yok,yok,yok,yok,yok,yok,yok,yok,yok,yok,yok,yok,yok,yok,yok,yok,yok,yok,yok,yok,kademe_6,iyi,iyi,bilinmiyor,125_150_m2,4_oda,orta_4_7_kat,2_banyo,yok,yok,yok,dusuk,yok,yok,yok,3_4_Milyon_TL_Arasi
Batman,Merkez,Satilik,6_10_arasi,3,Kombi_Dogalgaz,bilinmiyor,yok,yok,yok,var,yok,yok,yok,yok,yok,yok,yok,yok,yok,yok,yok,yok,yok,yok,yok,yok,yok,yok,yok,yok,yok,yok,yok,yok,yok,yok,kademe_6,normal,iyi,bilinmiyor,150_200_m2,4_oda,yuksek_8_15_kat,2_banyo,yok,yok,yok,dusuk,yok,yok,yok,4_5_Milyon_TL_Arasi
Batman,Merkez,Satilik,0,1,Kombi_Dogalgaz,bilinmiyor,yok,var,var,yok,var,yok,var,yok,yok,yok,var,yok,yok,var,yok,yok,yok,yok,yok,yok,yok,yok,yok,yok,yok,yok,yok,yok,yok,yok,kademe_6,normal,iyi,bilinmiyor,0_50_m2,2_oda,orta_4_7_kat,1_banyo,dusuk,yok,yok,dusuk,yok,yuksek,yok,1_5_2_Milyon_TL_Arasi
Diyarbakir,Kayapinar,Satilik,1_5_arasi,Yuksek_Giris,Merkezi,bilinmiyor,yok,var,var,var,yok,yok,var,var,yok,yok,var,yok,yok,yok,yok,yok,yok,yok,yok,yok,yok,yok,yok,yok,yok,var,yok,yok,yok,yok,kademe_6,normal,normal,bilinmiyor,150_200_m2,4_oda,yuksek_8_15_kat,2_banyo,orta,yok,yok,orta,orta,yuksek,yok,5_7_Bucuk_Milyon_TL_Arasi
Adiyaman,Merkez,Satilik,6_10_arasi,2,Kombi,bilinmiyor,yok,var,yok,var,yok,yok,yok,yok,yok,yok,yok,yok,yok,yok,yok,yok,yok,yok,yok,yok,yok,yok,yok,yok,yok,yok,yok,yok,yok,yok,kademe_6,normal,normal,bilinmiyor,150_200_m2,4_oda,orta_4_7_kat,1_banyo,yok,yok,yok,dusuk,yok,yok,yok,2_3_Milyon_TL_Arasi
Agri,Hamur,Satilik,11_15_arasi,1,Kombi,bilinmiyor,yok,yok,yok,yok,yok,yok,yok,yok,yok,yok,yok,yok,yok,yok,yok,yok,yok,yok,yok,yok,yok,yok,yok,yok,yok,yok,yok,yok,yok,yok,kademe_6,bilinmiyor,bilinmiyor,bilinmiyor,100_125_m2,2_oda,orta_4_7_kat,1_banyo,yok,yok,yok,dusuk,yok,yok,yok,2_3_Milyon_TL_Arasi
Van,Edremit,Satilik,16_20_arasi,4,Kombi,bilinmiyor,yok,var,var,var,yok,yok,var,var,var,yok,yok,yok,yok,yok,yok,yok,yok,yok,yok,yok,yok,yok,yok,var,yok,var,yok,yok,yok,yok,kademe_6,iyi,normal,bilinmiyor,200_300_m2,5_oda,orta_4_7_kat,2_banyo,dusuk,yok,yok,orta,dusuk,yuksek,yok,5_7_Bucuk_Milyon_TL_Arasi
Mardin,Artuklu,Satilik,31_ve_uzeri,Bahce,Klima,bilinmiyor,yok,var,yok,yok,yok,var,yok,var,var,yok,yok,yok,yok,yok,yok,yok,yok,yok,yok,yok,yok,yok,var,yok,yok,var,yok,yok,yok,yok,kademe_6,kotu,normal,bilinmiyor,300_m2_ve_ustu,7_oda_ve_ustu,orta_4_7_kat,3_banyo_ve_ustu,yok,yok,yok,dusuk,dusuk,dusuk,yok,10_Milyon_TL_Ustu
Agri,Merkez,Satilik,0,3,Kombi_Dogalgaz,bilinmiyor,yok,yok,yok,yok,yok,yok,var,var,var,yok,var,yok,yok,yok,yok,yok,yok,yok,yok,yok,yok,yok,yok,yok,yok,yok,yok,yok,yok,yok,kademe_6,bilinmiyor,iyi,bilinmiyor,75_100_m2,3_oda,orta_4_7_kat,1_banyo,yok,yok,yok,dusuk,yok,dusuk,yok,2_3_Milyon_TL_Arasi
Van,Edremit,Satilik,0,Bahce,Kombi,bilinmiyor,yok,yok,yok,var,yok,var,var,var,var,yok,yok,yok,yok,yok,yok,yok,yok,yok,yok,yok,yok,yok,var,yok,yok,var,yok,yok,yok,var,kademe_6,bilinmiyor,bilinmiyor,bilinmiyor,300_m2_ve_ustu,6_oda,orta_4_7_kat,3_banyo_ve_ustu,yok,yok,yok,dusuk,dusuk,dusuk,yok,10_Milyon_TL_Ustu
bilinmiyor,Midyat,Satilik,6_10_arasi,1,Kombi_Dogalgaz,bilinmiyor,yok,var,yok,yok,yok,yok,yok,var,yok,yok,yok,yok,yok,yok,yok,yok,yok,yok,yok,yok,yok,yok,yok,yok,yok,yok,yok,yok,yok,yok,kademe_6,bilinmiyor,kotu,bilinmiyor,75_100_m2,3_oda,orta_4_7_kat,1_banyo,yok,yok,yok,dusuk,yok,yok,yok,2_3_Milyon_TL_Arasi
Mardin,bilinmiyor,Satilik,6_10_arasi,1,Kombi_Dogalgaz,bilinmiyor,yok,var,yok,yok,yok,yok,yok,var,yok,yok,yok,yok,yok,yok,yok,yok,yok,yok,yok,yok,yok,yok,yok,yok,yok,yok,yok,yok,yok,yok,kademe_6,bilinmiyor,kotu,bilinmiyor,75_100_m2,3_oda,orta_4_7_kat,1_banyo,yok,yok,yok,dusuk,yok,yok,yok,2_3_Milyon_TL_Arasi
Mardin,Midyat,bilinmiyor,6_10_arasi,1,Kombi_Dogalgaz,bilinmiyor,yok,var,yok,yok,yok,yok,yok,var,yok,yok,yok,yok,yok,yok,yok,yok,yok,yok,yok,yok,yok,yok,yok,yok,yok,yok,yok,yok,yok,yok,kademe_6,bilinmiyor,kotu,bilinmiyor,75_100_m2,3_oda,orta_4_7_kat,1_banyo,yok,yok,yok,dusuk,yok,yok,yok,2_3_Milyon_TL_Arasi
Mardin,Midyat,Satilik,bilinmiyor,1,Kombi_Dogalgaz,bilinmiyor,yok,var,yok,yok,yok,yok,yok,var,yok,yok,yok,yok,yok,yok,yok,yok,yok,yok,yok,yok,yok,yok,yok,yok,yok,yok,yok,yok,yok,yok,kademe_6,bilinmiyor,kotu,bilinmiyor,75_100_m2,3_oda,orta_4_7_kat,1_banyo,yok,yok,yok,dusuk,yok,yok,yok,2_3_Milyon_TL_Arasi
Mardin,Midyat,Satilik,6_10_arasi,1,Kombi_Dogalgaz,bilinmiyor,yok,var,yok,yok,yok,yok,yok,var,yok,yok,yok,yok,yok,yok,yok,yok,yok,yok,yok,yok,yok,yok,yok,yok,yok,yok,yok,yok,yok,yok,bilinmiyor,bilinmiyor,kotu,bilinmiyor,75_100_m2,3_oda,orta_4_7_kat,1_banyo,yok,yok,yok,dusuk,yok,yok,yok,2_3_Milyon_TL_Arasi
Mardin,Midyat,Satilik,6_10_arasi,1,Kombi_Dogalgaz,bilinmiyor,yok,var,yok,yok,yok,yok,yok,var,yok,yok,yok,yok,yok,yok,yok,yok,yok,yok,yok,yok,yok,yok,yok,yok,yok,yok,yok,yok,yok,yok,kademe_6,bilinmiyor,kotu,bilinmiyor,bilinmiyor,3_oda,orta_4_7_kat,1_banyo,yok,yok,yok,dusuk,yok,yok,yok,2_3_Milyon_TL_Arasi
Mardin,Midyat,Satilik,6_10_arasi,1,Kombi_Dogalgaz,bilinmiyor,yok,var,yok,yok,yok,yok,yok,var,yok,yok,yok,yok,yok,yok,yok,yok,yok,yok,yok,yok,yok,yok,yok,yok,yok,yok,yok,yok,yok,yok,kademe_6,bilinmiyor,kotu,bilinmiyor,75_100_m2,bilinmiyor,orta_4_7_kat,1_banyo,yok,yok,yok,dusuk,yok,yok,yok,2_3_Milyon_TL_Arasi
Mardin,Midyat,Satilik,6_10_arasi,1,Kombi_Dogalgaz,bilinmiyor,yok,var,yok,yok,yok,yok,yok,var,yok,yok,yok,yok,yok,yok,yok,yok,yok,yok,yok,yok,yok,yok,yok,yok,yok,yok,yok,yok,yok,yok,kademe_6,bilinmiyor,kotu,bilinmiyor,75_100_m2,3_oda,orta_4_7_kat,1_banyo,bilinmiyor,yok,yok,dusuk,yok,yok,yok,2_3_Milyon_TL_Arasi
Mardin,Midyat,Satilik,6_10_arasi,1,Kombi_Dogalgaz,bilinmiyor,yok,var,yok,yok,yok,yok,yok,var,yok,yok,yok,yok,yok,yok,yok,yok,yok,yok,yok,yok,yok,yok,yok,yok,yok,yok,yok,yok,yok,yok,kademe_6,bilinmiyor,kotu,bilinmiyor,75_100_m2,3_oda,orta_4_7_kat,1_banyo,yok,bilinmiyor,yok,dusuk,yok,yok,yok,2_3_Milyon_TL_Arasi
Mardin,Midyat,Satilik,6_10_arasi,1,Kombi_Dogalgaz,bilinmiyor,yok,var,yok,yok,yok,yok,yok,var,yok,yok,yok,yok,yok,yok,yok,yok,yok,yok,yok,yok,yok,yok,yok,yok,yok,yok,yok,yok,yok,yok,kademe_6,bilinmiyor,kotu,bilinmiyor,75_100_m2,3_oda,orta_4_7_kat,1_banyo,yok,yok,bilinmiyor,dusuk,yok,yok,yok,2_3_Milyon_TL_Arasi
Mardin,Midyat,Satilik,6_10_arasi,1,Kombi_Dogalgaz,bilinmiyor,yok,var,yok,yok,yok,yok,yok,var,yok,yok,yok,yok,yok,yok,yok,yok,yok,yok,yok,yok,yok,yok,yok,yok,yok,yok,yok,yok,yok,yok,kademe_6,bilinmiyor,kotu,bilinmiyor,75_100_m2,3_oda,orta_4_7_kat,1_banyo,yok,yok,yok,bilinmiyor,yok,yok,yok,2_3_Milyon_TL_Arasi
Mardin,Midyat,Satilik,6_10_arasi,1,Kombi_Dogalgaz,bilinmiyor,yok,var,yok,yok,yok,yok,yok,var,yok,yok,yok,yok,yok,yok,yok,yok,yok,yok,yok,yok,yok,yok,yok,yok,yok,yok,yok,yok,yok,yok,kademe_6,bilinmiyor,kotu,bilinmiyor,75_100_m2,3_oda,orta_4_7_kat,1_banyo,yok,yok,yok,dusuk,bilinmiyor,yok,yok,2_3_Milyon_TL_Arasi
Mardin,Midyat,Satilik,6_10_arasi,1,Kombi_Dogalgaz,bilinmiyor,yok,var,yok,yok,yok,yok,yok,var,yok,yok,yok,yok,yok,yok,yok,yok,yok,yok,yok,yok,yok,yok,yok,yok,yok,yok,yok,yok,yok,yok,kademe_6,bilinmiyor,kotu,bilinmiyor,75_100_m2,3_oda,orta_4_7_kat,1_banyo,yok,yok,yok,dusuk,yok,bilinmiyor,yok,2_3_Milyon_TL_Arasi
Mardin,Midyat,Satilik,6_10_arasi,1,Kombi_Dogalgaz,bilinmiyor,yok,var,yok,yok,yok,yok,yok,var,yok,yok,yok,yok,yok,yok,yok,yok,yok,yok,yok,yok,yok,yok,yok,yok,yok,yok,yok,yok,yok,yok,kademe_6,bilinmiyor,kotu,bilinmiyor,75_100_m2,3_oda,orta_4_7_kat,1_banyo,yok,yok,yok,dusuk,yok,yok,bilinmiyor,2_3_Milyon_TL_Arasi
