@RELATION train_kademe4

@ATTRIBUTE il {Afyonkarahisar,Aksaray,Amasya,Artvin,Elazig,Kastamonu,Kirsehir,Sivas,bilinmiyor}
@ATTRIBUTE ilce {Abana,Agacoren,Agli,Arac,Arhavi,Bolvadin,Bozkurt,Catalzeytin,Cide,Daday,Dazkiri,Devrekani,Dinar,Divrigi,Emirdag,Evciler,Gemerek,Gulagac,Gumushacikoy,Gurun,Guzelyurt,Hopa,Ihsangazi,Ihsaniye,Inebolu,Iscehisar,Kaman,Karakocan,Kemalpasa,Kovancilar,Maden,Merkez,Merzifon,Mucur,Murgul,Ortakoy,Sandikli,Sariyahsi,Savsat,Seydiler,Sinanpasa,Sivrice,Suhut,Sultandagi,Sultanhani,Suluova,Taskopru,Tasova,Tosya,bilinmiyor}
@ATTRIBUTE emlak_tipi {Satilik,bilinmiyor}
@ATTRIBUTE bina_yasi_raw {0,11_15_arasi,16_20_arasi,1_5_arasi,21_25_arasi,26_30_arasi,31_ve_uzeri,6_10_arasi,bilinmiyor}
@ATTRIBUTE bulundugu_kat_raw {1,10,11,12,13,14,15,17,19,2,3,4,5,6,7,8,9,Ara_Kat,Bahce,Bodrum,Cati,En_Ust_Kat,Giris,Kot_1,Kot_2,Kot_3,Teras_Kati,Villa_Kati,Yuksek_Giris,Zemin,bilinmiyor}
@ATTRIBUTE isitma_ana_sinif {Dogalgaz_Sobasi,Gunes_Enerjisi,Jeotermal,Kat_Kaloriferi,Klima,Kombi,Kombi_Dogalgaz,Merkezi,Soba,Somine,Yerden_Isitma,belirtilmemis_dogalgaz,belirtilmemis_elektrik,bilinmiyor,isitma_yok,isitma_yok_komur_odun}
@ATTRIBUTE mutfak_raw {bilinmiyor}
@ATTRIBUTE mutfak_acik_mi {yok,var}
@ATTRIBUTE balkon {yok,var}
@ATTRIBUTE asansor {yok,var}
@ATTRIBUTE otopark {yok,var}
@ATTRIBUTE esyali {yok,var}
@ATTRIBUTE Bati {yok,var}
@ATTRIBUTE Dogu {yok,var}
@ATTRIBUTE Guney {yok,var}
@ATTRIBUTE Kuzey {yok,var}
@ATTRIBUTE Akilli_Ev {yok,var}
@ATTRIBUTE Celik_Kapi {yok,var}
@ATTRIBUTE Ebeveyn_Banyosu {yok,var}
@ATTRIBUTE Fiber_Internet {yok,var}
@ATTRIBUTE Isicam {yok,var}
@ATTRIBUTE Somine {yok,var}
@ATTRIBUTE Isi_Yalitimi {yok,var}
@ATTRIBUTE Mustakil_Havuzlu {yok,var}
@ATTRIBUTE Ses_Yalitimi {yok,var}
@ATTRIBUTE Yuzme_Havuzu_Acik {yok,var}
@ATTRIBUTE Yuzme_Havuzu_Kapali {yok,var}
@ATTRIBUTE Bogaz {yok,var}
@ATTRIBUTE Deniz {yok,var}
@ATTRIBUTE Doga {yok,var}
@ATTRIBUTE Gol {yok,var}
@ATTRIBUTE Nehir {yok,var}
@ATTRIBUTE Sehir {yok,var}
@ATTRIBUTE Dubleks {yok,var}
@ATTRIBUTE Bahce_Dubleksi {yok,var}
@ATTRIBUTE Cati_Dubleksi {yok,var}
@ATTRIBUTE Tripleks {yok,var}
@ATTRIBUTE sege_kademe {bilinmiyor,kademe_4}
@ATTRIBUTE salon_kalitesi {bilinmiyor,iyi,kotu,normal}
@ATTRIBUTE mutfak_kalitesi {bilinmiyor,iyi,kotu,normal}
@ATTRIBUTE banyo_kalitesi {bilinmiyor,iyi,kotu,normal}
@ATTRIBUTE metrekare_kategori {0_50_m2,100_125_m2,125_150_m2,150_200_m2,200_300_m2,300_m2_ve_ustu,50_75_m2,75_100_m2,bilinmiyor}
@ATTRIBUTE oda_kategori {1_oda,2_oda,3_oda,4_oda,5_oda,6_oda,7_oda_ve_ustu,bilinmiyor}
@ATTRIBUTE kat_sayisi_kategori {alcak_1_3_kat,bilinmiyor,cok_yuksek_16_ustu_kat,orta_4_7_kat,yuksek_8_15_kat}
@ATTRIBUTE banyo_kategori {1_banyo,2_banyo,3_banyo_ve_ustu,bilinmiyor}
@ATTRIBUTE guvenlik_kategori {bilinmiyor,dusuk,orta,yok}
@ATTRIBUTE luks_kategori {bilinmiyor,dusuk,orta,yok}
@ATTRIBUTE sosyal_kategori {bilinmiyor,dusuk,orta,yok}
@ATTRIBUTE ulasim_kategori {bilinmiyor,dusuk,orta,yok}
@ATTRIBUTE cevre_yakinlik_kategori {bilinmiyor,dusuk,orta,yok,yuksek}
@ATTRIBUTE ic_konfor_kategori {bilinmiyor,dusuk,orta,yok,yuksek}
@ATTRIBUTE engelli_kategori {bilinmiyor,dusuk,yok}
@ATTRIBUTE fiyat_kategorisi {10_Milyon_TL_Ustu,1_5_2_Milyon_TL_Arasi,1_5_Milyon_TL_Alti,2_3_Milyon_TL_Arasi,3_4_Milyon_TL_Arasi,4_5_Milyon_TL_Arasi,5_7_Bucuk_Milyon_TL_Arasi,7_Bucuk_10_Milyon_TL_Arasi}

@DATA
Amasya,Merzifon,Satilik,6_10_arasi,4,Kombi_Dogalgaz,bilinmiyor,yok,yok,var,yok,yok,var,yok,var,yok,yok,yok,yok,yok,yok,yok,yok,yok,yok,yok,yok,yok,yok,yok,yok,yok,yok,yok,yok,yok,yok,kademe_4,kotu,bilinmiyor,kotu,125_150_m2,4_oda,orta_4_7_kat,2_banyo,yok,yok,yok,dusuk,yok,yok,yok,4_5_Milyon_TL_Arasi
Amasya,Merzifon,Satilik,6_10_arasi,3,Kombi,bilinmiyor,yok,var,yok,var,var,yok,yok,yok,yok,yok,yok,yok,yok,yok,yok,yok,yok,yok,yok,yok,yok,yok,yok,yok,yok,var,yok,yok,yok,yok,kademe_4,kotu,kotu,bilinmiyor,50_75_m2,2_oda,orta_4_7_kat,1_banyo,yok,yok,dusuk,dusuk,orta,orta,yok,1_5_2_Milyon_TL_Arasi
Amasya,Merzifon,Satilik,0,3,Kombi,bilinmiyor,yok,var,yok,var,yok,yok,yok,var,yok,yok,yok,yok,yok,yok,yok,yok,yok,yok,yok,yok,yok,yok,yok,yok,yok,yok,yok,yok,yok,yok,kademe_4,iyi,kotu,normal,50_75_m2,2_oda,orta_4_7_kat,1_banyo,yok,yok,yok,dusuk,yok,yok,yok,2_3_Milyon_TL_Arasi
Amasya,Merzifon,Satilik,11_15_arasi,5,Kombi,bilinmiyor,yok,var,var,var,yok,yok,yok,var,var,yok,yok,yok,yok,yok,yok,yok,yok,yok,yok,yok,yok,yok,yok,yok,yok,yok,yok,yok,yok,yok,kademe_4,normal,normal,bilinmiyor,125_150_m2,4_oda,orta_4_7_kat,2_banyo,yok,yok,yok,dusuk,dusuk,yok,yok,3_4_Milyon_TL_Arasi
Kirsehir,Merkez,Satilik,1_5_arasi,Yuksek_Giris,Kombi_Dogalgaz,bilinmiyor,yok,var,var,var,yok,var,yok,var,yok,yok,var,yok,yok,var,yok,yok,yok,yok,yok,yok,yok,yok,yok,yok,yok,yok,yok,yok,yok,yok,kademe_4,kotu,bilinmiyor,kotu,125_150_m2,4_oda,orta_4_7_kat,1_banyo,yok,yok,yok,dusuk,dusuk,orta,yok,3_4_Milyon_TL_Arasi
Aksaray,Merkez,Satilik,0,2,Kombi,bilinmiyor,yok,var,yok,var,yok,var,yok,var,yok,yok,var,var,yok,var,var,yok,yok,yok,yok,yok,yok,yok,var,yok,yok,var,yok,yok,yok,yok,kademe_4,normal,normal,kotu,100_125_m2,3_oda,orta_4_7_kat,1_banyo,yok,orta,dusuk,orta,orta,yuksek,yok,3_4_Milyon_TL_Arasi
Elazig,Merkez,Satilik,16_20_arasi,3,Kombi,bilinmiyor,yok,var,yok,var,yok,var,var,var,yok,yok,yok,yok,yok,yok,yok,yok,yok,yok,yok,yok,yok,yok,yok,yok,yok,var,yok,yok,yok,yok,kademe_4,kotu,kotu,bilinmiyor,75_100_m2,3_oda,orta_4_7_kat,1_banyo,yok,yok,dusuk,dusuk,orta,orta,yok,1_5_Milyon_TL_Alti
Afyonkarahisar,Merkez,Satilik,16_20_arasi,4,Merkezi,bilinmiyor,yok,var,var,yok,yok,var,yok,var,yok,yok,yok,yok,yok,var,yok,yok,yok,yok,yok,yok,yok,yok,yok,yok,yok,yok,yok,yok,yok,yok,kademe_4,kotu,kotu,bilinmiyor,125_150_m2,4_oda,orta_4_7_kat,1_banyo,yok,yok,yok,dusuk,yok,dusuk,yok,2_3_Milyon_TL_Arasi
Amasya,Merzifon,Satilik,0,1,Kombi,bilinmiyor,yok,var,var,var,yok,var,var,var,var,yok,var,yok,yok,var,yok,yok,yok,yok,yok,yok,yok,yok,yok,yok,yok,var,yok,yok,yok,yok,kademe_4,bilinmiyor,bilinmiyor,bilinmiyor,125_150_m2,4_oda,orta_4_7_kat,2_banyo,yok,dusuk,dusuk,dusuk,orta,yuksek,yok,4_5_Milyon_TL_Arasi
Aksaray,Merkez,Satilik,21_25_arasi,bilinmiyor,Kombi_Dogalgaz,bilinmiyor,yok,yok,yok,var,yok,yok,yok,var,yok,yok,yok,yok,yok,yok,yok,yok,yok,yok,yok,yok,yok,yok,yok,yok,yok,yok,yok,yok,yok,yok,kademe_4,kotu,bilinmiyor,bilinmiyor,150_200_m2,4_oda,alcak_1_3_kat,2_banyo,yok,yok,yok,dusuk,yok,yok,yok,5_7_Bucuk_Milyon_TL_Arasi
Artvin,Merkez,Satilik,31_ve_uzeri,bilinmiyor,Soba,bilinmiyor,yok,yok,yok,yok,yok,yok,yok,yok,yok,yok,yok,yok,yok,yok,yok,yok,yok,yok,yok,yok,yok,yok,yok,yok,yok,yok,yok,yok,yok,yok,kademe_4,bilinmiyor,bilinmiyor,bilinmiyor,125_150_m2,4_oda,orta_4_7_kat,1_banyo,yok,yok,yok,dusuk,yok,yok,yok,5_7_Bucuk_Milyon_TL_Arasi
Amasya,Merkez,Satilik,16_20_arasi,3,Kombi,bilinmiyor,yok,var,yok,var,yok,yok,yok,yok,yok,yok,var,yok,yok,var,yok,yok,yok,yok,yok,yok,yok,yok,yok,yok,yok,yok,yok,yok,yok,yok,kademe_4,iyi,bilinmiyor,bilinmiyor,100_125_m2,3_oda,orta_4_7_kat,1_banyo,yok,yok,yok,dusuk,yok,yuksek,yok,2_3_Milyon_TL_Arasi
Aksaray,Merkez,Satilik,0,4,Kombi_Dogalgaz,bilinmiyor,yok,var,yok,yok,yok,yok,yok,var,yok,yok,yok,yok,yok,yok,yok,yok,yok,yok,yok,yok,yok,yok,yok,yok,yok,yok,yok,yok,yok,yok,kademe_4,iyi,bilinmiyor,bilinmiyor,50_75_m2,2_oda,orta_4_7_kat,bilinmiyor,yok,yok,yok,dusuk,yok,yok,yok,1_5_2_Milyon_TL_Arasi
Artvin,Hopa,Satilik,31_ve_uzeri,5,Soba,bilinmiyor,yok,yok,yok,yok,yok,yok,yok,yok,yok,yok,yok,yok,yok,yok,yok,yok,yok,yok,yok,yok,yok,yok,yok,yok,yok,yok,yok,yok,yok,yok,kademe_4,bilinmiyor,bilinmiyor,bilinmiyor,100_125_m2,4_oda,orta_4_7_kat,1_banyo,yok,yok,yok,dusuk,yok,yok,yok,2_3_Milyon_TL_Arasi
Artvin,Merkez,Satilik,16_20_arasi,4,Kombi,bilinmiyor,yok,var,yok,var,yok,yok,yok,yok,yok,yok,yok,yok,yok,yok,yok,yok,yok,yok,yok,yok,yok,yok,yok,yok,yok,yok,yok,yok,yok,yok,kademe_4,normal,bilinmiyor,bilinmiyor,125_150_m2,4_oda,orta_4_7_kat,1_banyo,yok,yok,yok,dusuk,yok,yok,yok,4_5_Milyon_TL_Arasi
Amasya,Merkez,Satilik,21_25_arasi,3,Kombi,bilinmiyor,yok,var,yok,var,yok,yok,yok,var,var,yok,yok,yok,yok,yok,yok,yok,yok,yok,yok,yok,yok,yok,yok,yok,yok,var,yok,yok,yok,yok,kademe_4,normal,kotu,kotu,100_125_m2,3_oda,orta_4_7_kat,1_banyo,yok,yok,dusuk,dusuk,yuksek,dusuk,yok,2_3_Milyon_TL_Arasi
Afyonkarahisar,Emirdag,Satilik,11_15_arasi,Bahce,Kombi,bilinmiyor,yok,var,var,var,yok,var,var,var,var,yok,var,var,yok,var,yok,yok,yok,yok,yok,yok,yok,yok,var,yok,yok,yok,var,yok,yok,yok,kademe_4,bilinmiyor,iyi,bilinmiyor,200_300_m2,5_oda,alcak_1_3_kat,3_banyo_ve_ustu,yok,dusuk,yok,dusuk,orta,yuksek,yok,10_Milyon_TL_Ustu
Amasya,Merzifon,Satilik,21_25_arasi,Ara_Kat,Kombi_Dogalgaz,bilinmiyor,yok,yok,yok,yok,yok,var,yok,var,var,yok,yok,yok,yok,yok,yok,yok,yok,yok,yok,yok,yok,yok,yok,yok,yok,var,yok,yok,yok,yok,kademe_4,normal,kotu,bilinmiyor,100_125_m2,3_oda,orta_4_7_kat,1_banyo,yok,yok,yok,dusuk,yok,yok,yok,1_5_2_Milyon_TL_Arasi
Aksaray,Merkez,Satilik,1_5_arasi,2,Yerden_Isitma,bilinmiyor,yok,var,var,yok,var,yok,yok,var,yok,yok,yok,yok,yok,yok,yok,yok,yok,yok,yok,yok,yok,yok,yok,yok,yok,yok,yok,yok,yok,yok,kademe_4,normal,normal,bilinmiyor,50_75_m2,2_oda,orta_4_7_kat,1_banyo,yok,yok,yok,dusuk,yok,yok,yok,1_5_Milyon_TL_Alti
Amasya,Merzifon,Satilik,0,2,Kombi_Dogalgaz,bilinmiyor,yok,var,var,var,yok,var,yok,var,var,yok,var,yok,yok,var,yok,yok,yok,yok,yok,yok,yok,yok,var,yok,yok,var,yok,yok,yok,yok,kademe_4,normal,bilinmiyor,kotu,125_150_m2,4_oda,orta_4_7_kat,2_banyo,yok,yok,yok,dusuk,yok,orta,yok,3_4_Milyon_TL_Arasi
Amasya,Merkez,Satilik,11_15_arasi,3,Kombi,bilinmiyor,yok,var,var,var,yok,yok,yok,yok,yok,yok,var,yok,yok,var,yok,yok,yok,yok,yok,yok,yok,yok,yok,yok,yok,yok,yok,yok,yok,yok,kademe_4,normal,normal,bilinmiyor,150_200_m2,4_oda,orta_4_7_kat,1_banyo,yok,yok,yok,dusuk,orta,yuksek,yok,5_7_Bucuk_Milyon_TL_Arasi
Amasya,Merkez,Satilik,11_15_arasi,4,Kombi,bilinmiyor,yok,yok,yok,var,var,yok,yok,yok,yok,yok,yok,yok,yok,yok,yok,yok,yok,yok,yok,yok,yok,yok,yok,yok,yok,yok,yok,yok,yok,yok,kademe_4,kotu,normal,normal,50_75_m2,2_oda,orta_4_7_kat,1_banyo,yok,yok,yok,dusuk,yok,yok,yok,1_5_Milyon_TL_Alti
Aksaray,Merkez,Satilik,31_ve_uzeri,Kot_2,Kombi_Dogalgaz,bilinmiyor,yok,var,var,var,yok,yok,yok,yok,var,yok,var,yok,yok,var,yok,yok,yok,yok,yok,yok,yok,yok,yok,yok,yok,var,yok,yok,yok,yok,kademe_4,kotu,kotu,kotu,100_125_m2,3_oda,orta_4_7_kat,1_banyo,yok,yok,yok,orta,orta,yuksek,yok,2_3_Milyon_TL_Arasi
Aksaray,Merkez,Satilik,0,4,Kombi_Dogalgaz,bilinmiyor,yok,var,yok,yok,yok,yok,var,var,yok,yok,yok,yok,yok,yok,yok,yok,yok,yok,yok,yok,yok,yok,yok,yok,yok,yok,yok,yok,yok,yok,kademe_4,iyi,bilinmiyor,bilinmiyor,50_75_m2,2_oda,orta_4_7_kat,1_banyo,yok,yok,yok,yok,yok,yok,yok,1_5_2_Milyon_TL_Arasi
Afyonkarahisar,Merkez,Satilik,31_ve_uzeri,Bahce,Kombi,bilinmiyor,yok,yok,yok,yok,yok,yok,yok,yok,yok,yok,yok,yok,yok,yok,yok,yok,yok,yok,yok,yok,yok,yok,yok,yok,yok,yok,yok,yok,yok,yok,kademe_4,kotu,normal,kotu,75_100_m2,3_oda,bilinmiyor,1_banyo,yok,yok,yok,dusuk,yok,yok,yok,1_5_Milyon_TL_Alti
Kastamonu,Bozkurt,Satilik,31_ve_uzeri,5,Soba,bilinmiyor,yok,var,yok,var,yok,var,var,var,var,yok,yok,yok,yok,yok,yok,yok,yok,yok,yok,yok,yok,yok,var,yok,yok,var,yok,yok,yok,yok,kademe_4,bilinmiyor,bilinmiyor,bilinmiyor,300_m2_ve_ustu,7_oda_ve_ustu,orta_4_7_kat,3_banyo_ve_ustu,yok,yok,dusuk,dusuk,yuksek,dusuk,yok,7_Bucuk_10_Milyon_TL_Arasi
Sivas,Merkez,Satilik,0,1,Kombi,bilinmiyor,yok,yok,var,var,yok,yok,var,var,yok,yok,var,yok,yok,yok,yok,yok,yok,yok,yok,yok,yok,yok,var,yok,yok,var,yok,yok,yok,yok,kademe_4,bilinmiyor,normal,normal,50_75_m2,2_oda,alcak_1_3_kat,1_banyo,dusuk,yok,dusuk,dusuk,orta,orta,yok,3_4_Milyon_TL_Arasi
Aksaray,Merkez,Satilik,0,1,Yerden_Isitma,bilinmiyor,yok,var,yok,yok,yok,yok,yok,yok,yok,yok,yok,yok,yok,yok,yok,yok,yok,yok,yok,yok,yok,yok,yok,yok,yok,yok,yok,yok,yok,yok,kademe_4,normal,iyi,normal,50_75_m2,2_oda,orta_4_7_kat,1_banyo,yok,yok,yok,yok,yok,yok,yok,2_3_Milyon_TL_Arasi
Afyonkarahisar,Merkez,Satilik,21_25_arasi,Yuksek_Giris,Jeotermal,bilinmiyor,yok,var,var,var,yok,yok,var,var,yok,yok,var,yok,yok,yok,yok,yok,yok,yok,yok,yok,yok,yok,yok,yok,yok,yok,yok,yok,yok,yok,kademe_4,bilinmiyor,bilinmiyor,bilinmiyor,150_200_m2,4_oda,yuksek_8_15_kat,1_banyo,yok,yok,yok,dusuk,dusuk,orta,yok,5_7_Bucuk_Milyon_TL_Arasi
Amasya,Merkez,Satilik,16_20_arasi,1,Kombi,bilinmiyor,yok,var,var,var,yok,yok,yok,yok,yok,yok,var,yok,yok,var,yok,yok,yok,yok,yok,yok,yok,yok,yok,yok,yok,yok,yok,yok,yok,yok,kademe_4,bilinmiyor,normal,bilinmiyor,150_200_m2,4_oda,orta_4_7_kat,1_banyo,yok,yok,yok,dusuk,orta,yuksek,yok,4_5_Milyon_TL_Arasi
Kastamonu,Inebolu,Satilik,31_ve_uzeri,bilinmiyor,Soba,bilinmiyor,yok,yok,yok,yok,yok,yok,yok,yok,yok,yok,yok,yok,yok,yok,yok,yok,yok,yok,yok,yok,yok,yok,yok,yok,yok,yok,yok,yok,yok,yok,kademe_4,bilinmiyor,bilinmiyor,bilinmiyor,200_300_m2,7_oda_ve_ustu,alcak_1_3_kat,2_banyo,yok,yok,yok,dusuk,yok,yok,yok,10_Milyon_TL_Ustu
Afyonkarahisar,Merkez,Satilik,1_5_arasi,1,Kombi,bilinmiyor,yok,var,var,var,yok,yok,yok,yok,yok,yok,var,yok,yok,yok,yok,yok,yok,yok,yok,yok,yok,yok,yok,yok,yok,var,yok,yok,yok,yok,kademe_4,iyi,normal,kotu,100_125_m2,4_oda,orta_4_7_kat,1_banyo,yok,yok,yok,dusuk,orta,orta,yok,4_5_Milyon_TL_Arasi
Kirsehir,Merkez,Satilik,31_ve_uzeri,1,bilinmiyor,bilinmiyor,yok,yok,yok,yok,yok,yok,yok,yok,yok,yok,yok,yok,yok,yok,yok,yok,yok,yok,yok,yok,yok,yok,yok,yok,yok,yok,yok,yok,yok,yok,kademe_4,bilinmiyor,bilinmiyor,bilinmiyor,100_125_m2,4_oda,alcak_1_3_kat,1_banyo,yok,yok,yok,dusuk,yok,yok,yok,1_5_2_Milyon_TL_Arasi
Amasya,Merzifon,Satilik,0,1,Kombi,bilinmiyor,yok,yok,yok,var,yok,var,var,var,var,yok,var,yok,yok,yok,yok,yok,yok,yok,yok,yok,yok,yok,var,yok,yok,var,yok,yok,yok,yok,kademe_4,iyi,normal,bilinmiyor,50_75_m2,2_oda,alcak_1_3_kat,1_banyo,yok,yok,dusuk,dusuk,yuksek,yuksek,yok,2_3_Milyon_TL_Arasi
Aksaray,Merkez,Satilik,0,3,Kombi_Dogalgaz,bilinmiyor,yok,yok,yok,var,yok,var,var,var,yok,yok,yok,yok,yok,yok,yok,yok,yok,yok,yok,yok,yok,yok,yok,yok,yok,yok,yok,yok,yok,yok,kademe_4,iyi,iyi,bilinmiyor,150_200_m2,4_oda,orta_4_7_kat,2_banyo,yok,yok,yok,yok,yok,yok,yok,5_7_Bucuk_Milyon_TL_Arasi
Elazig,Merkez,Satilik,21_25_arasi,Villa_Kati,Gunes_Enerjisi,bilinmiyor,yok,var,yok,yok,var,var,var,var,var,yok,var,var,yok,yok,yok,yok,yok,yok,yok,yok,yok,yok,yok,var,yok,yok,yok,yok,yok,var,kademe_4,bilinmiyor,bilinmiyor,bilinmiyor,300_m2_ve_ustu,5_oda,orta_4_7_kat,2_banyo,yok,dusuk,yok,dusuk,dusuk,yuksek,yok,7_Bucuk_10_Milyon_TL_Arasi
Aksaray,Merkez,Satilik,1_5_arasi,Teras_Kati,Kombi_Dogalgaz,bilinmiyor,yok,var,var,yok,yok,yok,yok,var,yok,yok,var,yok,yok,yok,yok,yok,yok,yok,yok,yok,yok,yok,yok,yok,yok,yok,var,yok,yok,yok,kademe_4,iyi,bilinmiyor,kotu,100_125_m2,3_oda,orta_4_7_kat,1_banyo,dusuk,yok,yok,yok,yok,dusuk,yok,3_4_Milyon_TL_Arasi
Aksaray,Merkez,Satilik,11_15_arasi,Yuksek_Giris,Kombi_Dogalgaz,bilinmiyor,yok,var,var,yok,yok,yok,var,var,yok,yok,yok,yok,yok,yok,yok,yok,yok,yok,yok,yok,yok,yok,yok,yok,yok,yok,yok,yok,yok,yok,kademe_4,bilinmiyor,bilinmiyor,bilinmiyor,125_150_m2,3_oda,orta_4_7_kat,1_banyo,yok,yok,yok,dusuk,yok,yok,yok,4_5_Milyon_TL_Arasi
Kastamonu,Devrekani,Satilik,0,2,Kombi,bilinmiyor,yok,var,var,var,yok,yok,var,var,yok,yok,var,var,yok,var,yok,yok,yok,yok,var,yok,yok,var,yok,yok,yok,var,yok,yok,yok,yok,kademe_4,bilinmiyor,bilinmiyor,bilinmiyor,75_100_m2,3_oda,orta_4_7_kat,1_banyo,dusuk,yok,dusuk,dusuk,orta,dusuk,yok,3_4_Milyon_TL_Arasi
Amasya,Merzifon,Satilik,6_10_arasi,1,Kombi,bilinmiyor,yok,var,yok,var,var,yok,yok,yok,yok,yok,yok,yok,yok,yok,yok,yok,yok,yok,yok,yok,yok,yok,yok,yok,yok,var,yok,yok,yok,yok,kademe_4,kotu,normal,kotu,50_75_m2,2_oda,orta_4_7_kat,1_banyo,yok,yok,dusuk,dusuk,yuksek,dusuk,yok,1_5_2_Milyon_TL_Arasi
Kirsehir,Merkez,Satilik,0,3,Kombi,bilinmiyor,yok,var,var,yok,yok,yok,yok,yok,yok,yok,yok,yok,yok,yok,yok,yok,yok,yok,yok,yok,yok,yok,yok,yok,yok,yok,yok,yok,yok,yok,kademe_4,iyi,bilinmiyor,iyi,125_150_m2,4_oda,orta_4_7_kat,1_banyo,yok,yok,yok,dusuk,yok,yok,yok,3_4_Milyon_TL_Arasi
Amasya,Merzifon,Satilik,26_30_arasi,Zemin,Kombi_Dogalgaz,bilinmiyor,yok,var,yok,var,yok,var,yok,var,yok,yok,yok,yok,yok,var,yok,yok,yok,yok,yok,yok,yok,yok,yok,yok,yok,var,yok,yok,yok,yok,kademe_4,kotu,kotu,kotu,100_125_m2,3_oda,alcak_1_3_kat,1_banyo,yok,yok,yok,dusuk,dusuk,orta,yok,1_5_Milyon_TL_Alti
Artvin,Merkez,Satilik,6_10_arasi,Giris,isitma_yok,bilinmiyor,yok,yok,yok,var,yok,yok,yok,yok,yok,yok,yok,yok,yok,yok,yok,yok,yok,yok,yok,yok,yok,yok,yok,yok,yok,yok,yok,yok,yok,yok,kademe_4,bilinmiyor,normal,bilinmiyor,50_75_m2,2_oda,orta_4_7_kat,1_banyo,yok,yok,yok,dusuk,yok,yok,yok,1_5_Milyon_TL_Alti
Kastamonu,Merkez,Satilik,0,9,Merkezi,bilinmiyor,yok,var,var,var,yok,yok,var,yok,var,yok,var,var,yok,var,yok,yok,yok,yok,var,yok,yok,yok,var,yok,yok,var,yok,yok,yok,yok,kademe_4,normal,normal,iyi,100_125_m2,3_oda,cok_yuksek_16_ustu_kat,2_banyo,dusuk,dusuk,dusuk,orta,yuksek,yuksek,yok,4_5_Milyon_TL_Arasi
Kastamonu,Merkez,Satilik,1_5_arasi,2,Kombi,bilinmiyor,yok,var,var,var,yok,yok,yok,var,yok,yok,var,yok,yok,yok,yok,yok,yok,yok,yok,yok,yok,yok,yok,yok,yok,var,yok,yok,yok,yok,kademe_4,normal,kotu,bilinmiyor,75_100_m2,3_oda,orta_4_7_kat,1_banyo,dusuk,yok,dusuk,orta,orta,yuksek,yok,2_3_Milyon_TL_Arasi
Kastamonu,Merkez,Satilik,0,4,Kombi,bilinmiyor,yok,var,var,var,yok,var,yok,var,yok,yok,var,yok,yok,var,yok,yok,yok,yok,yok,yok,yok,yok,var,yok,yok,var,yok,yok,yok,yok,kademe_4,bilinmiyor,bilinmiyor,bilinmiyor,75_100_m2,3_oda,orta_4_7_kat,1_banyo,dusuk,yok,dusuk,orta,yuksek,yuksek,yok,3_4_Milyon_TL_Arasi
Aksaray,Merkez,Satilik,1_5_arasi,Bahce,Soba,bilinmiyor,yok,yok,yok,yok,yok,yok,yok,yok,yok,yok,yok,yok,yok,yok,yok,yok,yok,yok,yok,yok,yok,yok,yok,yok,yok,yok,yok,yok,yok,yok,kademe_4,bilinmiyor,bilinmiyor,bilinmiyor,50_75_m2,1_oda,alcak_1_3_kat,1_banyo,yok,yok,yok,dusuk,yok,yok,yok,3_4_Milyon_TL_Arasi
Kastamonu,Merkez,Satilik,21_25_arasi,7,Kombi,bilinmiyor,yok,var,var,yok,yok,yok,var,var,yok,yok,var,yok,yok,yok,yok,yok,yok,yok,yok,yok,yok,yok,yok,yok,yok,var,yok,yok,yok,yok,kademe_4,normal,normal,bilinmiyor,150_200_m2,4_oda,yuksek_8_15_kat,1_banyo,dusuk,yok,yok,dusuk,orta,orta,yok,3_4_Milyon_TL_Arasi
Amasya,Merzifon,Satilik,0,3,Yerden_Isitma,bilinmiyor,yok,var,var,var,yok,yok,yok,var,yok,yok,yok,yok,yok,yok,yok,yok,yok,yok,yok,yok,yok,yok,yok,yok,yok,yok,yok,yok,yok,yok,kademe_4,bilinmiyor,bilinmiyor,bilinmiyor,75_100_m2,2_oda,orta_4_7_kat,1_banyo,yok,yok,yok,dusuk,yok,yok,yok,2_3_Milyon_TL_Arasi
Kastamonu,Inebolu,Satilik,21_25_arasi,4,Kombi_Dogalgaz,bilinmiyor,yok,yok,yok,yok,yok,yok,yok,yok,yok,yok,yok,yok,yok,yok,yok,yok,yok,yok,yok,yok,yok,yok,yok,yok,yok,yok,yok,yok,yok,yok,kademe_4,normal,kotu,bilinmiyor,125_150_m2,4_oda,orta_4_7_kat,1_banyo,yok,yok,yok,dusuk,yok,yok,yok,4_5_Milyon_TL_Arasi
Amasya,Merzifon,Satilik,0,3,Kombi_Dogalgaz,bilinmiyor,yok,var,var,yok,yok,var,var,yok,yok,yok,var,yok,yok,var,yok,yok,yok,yok,yok,yok,yok,yok,yok,yok,yok,var,yok,yok,yok,yok,kademe_4,bilinmiyor,bilinmiyor,bilinmiyor,50_75_m2,2_oda,orta_4_7_kat,1_banyo,dusuk,yok,yok,dusuk,yok,yuksek,yok,1_5_2_Milyon_TL_Arasi
Amasya,Merzifon,Satilik,16_20_arasi,5,Kombi,bilinmiyor,yok,var,yok,var,yok,var,yok,var,var,yok,yok,yok,yok,yok,yok,yok,yok,yok,yok,yok,yok,yok,yok,yok,yok,yok,yok,yok,yok,yok,kademe_4,normal,bilinmiyor,bilinmiyor,125_150_m2,3_oda,orta_4_7_kat,1_banyo,yok,yok,yok,dusuk,yok,yok,yok,2_3_Milyon_TL_Arasi
Elazig,Merkez,Satilik,0,2,Kombi,bilinmiyor,yok,var,var,var,yok,yok,yok,yok,yok,yok,yok,yok,yok,yok,yok,yok,yok,yok,yok,yok,yok,yok,yok,yok,yok,yok,yok,yok,yok,yok,kademe_4,iyi,normal,kotu,75_100_m2,2_oda,orta_4_7_kat,1_banyo,yok,yok,yok,dusuk,yok,yok,yok,2_3_Milyon_TL_Arasi
Kastamonu,Merkez,Satilik,21_25_arasi,Villa_Kati,Merkezi,bilinmiyor,yok,var,yok,var,yok,var,var,var,var,yok,yok,yok,yok,yok,yok,yok,yok,yok,yok,yok,yok,yok,yok,yok,yok,yok,yok,yok,yok,yok,kademe_4,iyi,normal,kotu,300_m2_ve_ustu,7_oda_ve_ustu,orta_4_7_kat,3_banyo_ve_ustu,yok,yok,yok,dusuk,orta,yok,yok,7_Bucuk_10_Milyon_TL_Arasi
Afyonkarahisar,Merkez,Satilik,26_30_arasi,5,Kombi,bilinmiyor,yok,var,var,yok,yok,var,yok,var,yok,yok,yok,yok,yok,yok,yok,yok,yok,yok,yok,yok,yok,yok,yok,yok,yok,var,yok,yok,yok,yok,kademe_4,kotu,bilinmiyor,bilinmiyor,100_125_m2,4_oda,orta_4_7_kat,1_banyo,yok,yok,yok,dusuk,yok,dusuk,yok,2_3_Milyon_TL_Arasi
Kastamonu,Inebolu,Satilik,21_25_arasi,bilinmiyor,Kombi_Dogalgaz,bilinmiyor,yok,var,yok,yok,yok,yok,yok,yok,yok,yok,yok,yok,yok,yok,yok,yok,yok,yok,yok,yok,yok,var,var,yok,yok,yok,yok,yok,yok,yok,kademe_4,iyi,bilinmiyor,bilinmiyor,200_300_m2,7_oda_ve_ustu,orta_4_7_kat,3_banyo_ve_ustu,yok,yok,yok,dusuk,yok,orta,yok,10_Milyon_TL_Ustu
Aksaray,Merkez,Satilik,1_5_arasi,2,Kombi,bilinmiyor,yok,var,var,yok,var,yok,yok,yok,yok,yok,yok,yok,yok,yok,yok,yok,yok,yok,yok,yok,yok,yok,yok,yok,yok,yok,yok,yok,yok,yok,kademe_4,normal,bilinmiyor,normal,0_50_m2,2_oda,alcak_1_3_kat,1_banyo,yok,yok,yok,dusuk,yok,yok,yok,1_5_Milyon_TL_Alti
Aksaray,Merkez,Satilik,0,1,Yerden_Isitma,bilinmiyor,yok,var,yok,yok,yok,var,yok,var,yok,yok,yok,yok,yok,yok,yok,yok,yok,yok,yok,yok,yok,yok,yok,yok,yok,yok,yok,yok,yok,yok,kademe_4,normal,iyi,iyi,125_150_m2,4_oda,orta_4_7_kat,1_banyo,yok,yok,yok,dusuk,yok,yok,yok,4_5_Milyon_TL_Arasi
Aksaray,Merkez,Satilik,0,6,Kombi,bilinmiyor,yok,var,var,yok,var,var,var,var,yok,yok,var,var,yok,var,var,yok,yok,yok,yok,yok,yok,yok,yok,yok,yok,var,yok,yok,yok,yok,kademe_4,iyi,normal,normal,50_75_m2,2_oda,orta_4_7_kat,1_banyo,dusuk,dusuk,yok,dusuk,orta,yuksek,yok,2_3_Milyon_TL_Arasi
Amasya,Merkez,Satilik,16_20_arasi,bilinmiyor,Kat_Kaloriferi,bilinmiyor,yok,var,yok,var,yok,var,var,yok,var,yok,yok,yok,yok,yok,yok,yok,yok,yok,yok,yok,yok,yok,yok,yok,yok,var,yok,yok,yok,yok,kademe_4,kotu,bilinmiyor,kotu,150_200_m2,5_oda,alcak_1_3_kat,1_banyo,yok,yok,yok,dusuk,orta,yuksek,yok,2_3_Milyon_TL_Arasi
Amasya,Merzifon,Satilik,0,1,Kombi_Dogalgaz,bilinmiyor,yok,var,yok,yok,yok,yok,var,var,var,yok,var,yok,yok,yok,yok,yok,yok,yok,yok,yok,yok,yok,yok,yok,yok,var,yok,yok,yok,yok,kademe_4,bilinmiyor,iyi,normal,75_100_m2,3_oda,orta_4_7_kat,1_banyo,yok,yok,yok,dusuk,yok,orta,yok,2_3_Milyon_TL_Arasi
Afyonkarahisar,Merkez,Satilik,21_25_arasi,1,Kombi_Dogalgaz,bilinmiyor,yok,yok,var,yok,yok,var,var,yok,yok,yok,yok,yok,yok,yok,yok,yok,yok,yok,yok,yok,yok,yok,yok,yok,yok,yok,yok,yok,yok,yok,kademe_4,normal,bilinmiyor,bilinmiyor,125_150_m2,4_oda,orta_4_7_kat,1_banyo,yok,yok,yok,dusuk,yok,yok,yok,2_3_Milyon_TL_Arasi
Afyonkarahisar,Merkez,Satilik,0,4,Yerden_Isitma,bilinmiyor,yok,var,yok,var,yok,var,yok,var,yok,yok,var,var,yok,yok,yok,yok,yok,yok,yok,yok,yok,yok,yok,yok,yok,var,yok,yok,yok,yok,kademe_4,bilinmiyor,bilinmiyor,bilinmiyor,125_150_m2,4_oda,orta_4_7_kat,2_banyo,yok,dusuk,yok,dusuk,orta,orta,yok,5_7_Bucuk_Milyon_TL_Arasi
Kastamonu,Merkez,Satilik,1_5_arasi,Bahce,isitma_yok,bilinmiyor,yok,var,yok,yok,yok,yok,yok,yok,yok,yok,yok,yok,yok,yok,yok,yok,yok,yok,yok,yok,yok,yok,yok,yok,yok,yok,yok,yok,yok,yok,kademe_4,kotu,bilinmiyor,kotu,150_200_m2,6_oda,bilinmiyor,2_banyo,yok,yok,yok,dusuk,yok,dusuk,yok,7_Bucuk_10_Milyon_TL_Arasi
Amasya,Suluova,Satilik,1_5_arasi,2,Yerden_Isitma,bilinmiyor,yok,var,yok,var,var,yok,yok,yok,yok,yok,var,yok,yok,var,yok,yok,yok,yok,yok,yok,yok,yok,yok,yok,yok,yok,yok,yok,yok,yok,kademe_4,iyi,bilinmiyor,normal,0_50_m2,2_oda,orta_4_7_kat,1_banyo,dusuk,yok,yok,dusuk,yuksek,yuksek,yok,1_5_2_Milyon_TL_Arasi
Kastamonu,Merkez,Satilik,0,3,Kombi,bilinmiyor,yok,yok,var,var,yok,var,var,yok,var,yok,var,yok,yok,var,yok,yok,yok,yok,yok,yok,yok,yok,var,yok,yok,var,yok,yok,yok,yok,kademe_4,kotu,bilinmiyor,bilinmiyor,0_50_m2,2_oda,orta_4_7_kat,1_banyo,dusuk,yok,dusuk,orta,yuksek,yuksek,yok,2_3_Milyon_TL_Arasi
Kastamonu,Merkez,Satilik,11_15_arasi,5,Kombi,bilinmiyor,yok,var,var,var,yok,yok,var,yok,var,yok,var,yok,yok,var,yok,yok,yok,yok,yok,yok,yok,yok,var,yok,yok,var,yok,yok,var,yok,kademe_4,iyi,normal,bilinmiyor,150_200_m2,6_oda,orta_4_7_kat,2_banyo,dusuk,dusuk,dusuk,orta,yuksek,yuksek,yok,4_5_Milyon_TL_Arasi
Amasya,Merzifon,Satilik,31_ve_uzeri,bilinmiyor,Soba,bilinmiyor,yok,yok,yok,yok,yok,yok,var,var,yok,yok,yok,yok,yok,yok,yok,yok,yok,yok,yok,yok,yok,yok,yok,yok,yok,var,yok,yok,yok,yok,kademe_4,bilinmiyor,bilinmiyor,bilinmiyor,75_100_m2,3_oda,alcak_1_3_kat,1_banyo,yok,yok,yok,dusuk,dusuk,yok,yok,1_5_Milyon_TL_Alti
Afyonkarahisar,Merkez,Satilik,0,bilinmiyor,Jeotermal,bilinmiyor,yok,yok,yok,yok,yok,yok,yok,var,yok,yok,yok,yok,yok,yok,yok,yok,yok,yok,yok,yok,yok,yok,yok,yok,yok,yok,var,yok,yok,yok,kademe_4,kotu,normal,normal,100_125_m2,3_oda,alcak_1_3_kat,1_banyo,yok,yok,yok,dusuk,yok,yok,yok,4_5_Milyon_TL_Arasi
Kastamonu,Catalzeytin,Satilik,21_25_arasi,2,Gunes_Enerjisi,bilinmiyor,yok,var,var,var,var,yok,yok,yok,var,yok,yok,yok,yok,yok,yok,yok,yok,yok,yok,yok,yok,var,yok,yok,yok,yok,yok,yok,yok,yok,kademe_4,kotu,kotu,kotu,125_150_m2,4_oda,orta_4_7_kat,1_banyo,yok,yok,yok,dusuk,yok,yok,yok,3_4_Milyon_TL_Arasi
Afyonkarahisar,Merkez,Satilik,11_15_arasi,Bahce,Kombi,bilinmiyor,yok,yok,yok,yok,yok,yok,var,var,yok,yok,var,var,yok,yok,var,yok,yok,yok,yok,yok,yok,yok,var,yok,yok,yok,var,yok,yok,yok,kademe_4,normal,kotu,bilinmiyor,200_300_m2,5_oda,alcak_1_3_kat,2_banyo,yok,dusuk,yok,orta,yok,orta,yok,7_Bucuk_10_Milyon_TL_Arasi
Amasya,Merzifon,Satilik,0,1,Yerden_Isitma,bilinmiyor,yok,var,yok,var,yok,yok,yok,yok,yok,yok,yok,yok,yok,yok,yok,yok,yok,yok,yok,yok,yok,yok,yok,yok,yok,var,yok,yok,yok,yok,kademe_4,iyi,iyi,normal,50_75_m2,2_oda,orta_4_7_kat,1_banyo,dusuk,yok,yok,dusuk,orta,dusuk,yok,1_5_2_Milyon_TL_Arasi
Afyonkarahisar,Merkez,Satilik,21_25_arasi,Zemin,Kombi_Dogalgaz,bilinmiyor,yok,yok,yok,yok,yok,yok,var,yok,var,yok,var,yok,yok,yok,yok,yok,yok,yok,yok,yok,yok,yok,yok,yok,yok,var,var,yok,yok,yok,kademe_4,bilinmiyor,bilinmiyor,bilinmiyor,150_200_m2,5_oda,alcak_1_3_kat,2_banyo,yok,yok,yok,dusuk,yok,dusuk,yok,4_5_Milyon_TL_Arasi
Aksaray,Merkez,Satilik,26_30_arasi,5,Kombi_Dogalgaz,bilinmiyor,yok,var,var,yok,yok,var,var,var,yok,yok,yok,yok,yok,yok,yok,yok,yok,yok,yok,yok,yok,yok,yok,yok,yok,yok,yok,yok,yok,yok,kademe_4,normal,kotu,normal,125_150_m2,4_oda,orta_4_7_kat,1_banyo,yok,yok,yok,yok,yok,yok,yok,2_3_Milyon_TL_Arasi
Elazig,Merkez,Satilik,16_20_arasi,Bahce,Kombi,bilinmiyor,yok,yok,var,var,yok,yok,yok,yok,yok,yok,yok,yok,yok,yok,yok,yok,yok,yok,yok,yok,yok,yok,yok,yok,yok,yok,yok,yok,yok,yok,kademe_4,normal,normal,kotu,125_150_m2,3_oda,orta_4_7_kat,1_banyo,yok,yok,yok,dusuk,yok,yok,yok,1_5_2_Milyon_TL_Arasi
Elazig,Merkez,Satilik,6_10_arasi,Cati,Kombi,bilinmiyor,yok,var,yok,yok,var,var,var,yok,yok,yok,var,yok,yok,yok,yok,yok,yok,yok,yok,yok,yok,yok,yok,yok,yok,yok,yok,yok,var,yok,kademe_4,normal,bilinmiyor,kotu,100_125_m2,3_oda,orta_4_7_kat,1_banyo,yok,yok,yok,dusuk,orta,orta,yok,1_5_Milyon_TL_Alti
Afyonkarahisar,Merkez,Satilik,0,2,Yerden_Isitma,bilinmiyor,yok,var,var,yok,yok,yok,yok,var,yok,yok,yok,yok,yok,yok,yok,yok,yok,yok,yok,yok,yok,yok,yok,yok,yok,yok,yok,yok,yok,yok,kademe_4,iyi,bilinmiyor,iyi,100_125_m2,4_oda,orta_4_7_kat,1_banyo,yok,yok,yok,dusuk,yok,yok,yok,4_5_Milyon_TL_Arasi
Afyonkarahisar,Merkez,Satilik,0,2,Yerden_Isitma,bilinmiyor,yok,var,var,var,yok,yok,yok,var,yok,yok,yok,yok,yok,yok,yok,yok,yok,yok,yok,yok,yok,yok,yok,yok,yok,yok,yok,yok,yok,yok,kademe_4,bilinmiyor,kotu,kotu,125_150_m2,4_oda,orta_4_7_kat,2_banyo,yok,yok,yok,dusuk,yok,yok,yok,5_7_Bucuk_Milyon_TL_Arasi
Afyonkarahisar,Merkez,Satilik,31_ve_uzeri,bilinmiyor,Soba,bilinmiyor,yok,yok,yok,yok,yok,var,var,var,var,yok,yok,yok,yok,yok,yok,yok,yok,yok,yok,yok,yok,yok,yok,yok,yok,yok,yok,yok,yok,yok,kademe_4,normal,bilinmiyor,kotu,125_150_m2,5_oda,alcak_1_3_kat,1_banyo,yok,yok,yok,dusuk,yok,yok,yok,1_5_2_Milyon_TL_Arasi
Elazig,Merkez,Satilik,6_10_arasi,En_Ust_Kat,Kombi,bilinmiyor,yok,var,yok,var,yok,yok,yok,var,var,yok,var,var,yok,yok,yok,yok,yok,yok,yok,yok,yok,yok,yok,yok,yok,yok,yok,yok,yok,yok,kademe_4,iyi,kotu,bilinmiyor,150_200_m2,4_oda,orta_4_7_kat,2_banyo,dusuk,yok,yok,dusuk,orta,yuksek,yok,2_3_Milyon_TL_Arasi
Amasya,Merzifon,Satilik,21_25_arasi,bilinmiyor,Kombi_Dogalgaz,bilinmiyor,yok,yok,yok,yok,yok,var,var,yok,var,yok,yok,yok,yok,yok,yok,yok,yok,yok,yok,yok,yok,yok,yok,yok,yok,var,yok,yok,yok,yok,kademe_4,normal,normal,kotu,100_125_m2,4_oda,orta_4_7_kat,1_banyo,yok,yok,yok,dusuk,yok,yok,yok,5_7_Bucuk_Milyon_TL_Arasi
Amasya,Merzifon,Satilik,0,4,Yerden_Isitma,bilinmiyor,yok,var,var,var,yok,yok,yok,var,yok,yok,var,yok,yok,var,yok,yok,yok,yok,yok,yok,yok,yok,yok,yok,yok,var,yok,yok,yok,yok,kademe_4,iyi,bilinmiyor,bilinmiyor,50_75_m2,2_oda,orta_4_7_kat,1_banyo,dusuk,yok,yok,dusuk,yok,yuksek,yok,1_5_2_Milyon_TL_Arasi
Elazig,Merkez,Satilik,0,5,Kombi,bilinmiyor,yok,var,var,var,yok,var,yok,yok,yok,yok,var,yok,yok,yok,yok,yok,yok,yok,yok,yok,yok,yok,yok,yok,yok,yok,yok,yok,yok,yok,kademe_4,iyi,normal,iyi,75_100_m2,2_oda,yuksek_8_15_kat,1_banyo,yok,yok,yok,dusuk,orta,yuksek,yok,1_5_2_Milyon_TL_Arasi
Sivas,Merkez,Satilik,16_20_arasi,3,Kombi_Dogalgaz,bilinmiyor,yok,yok,yok,var,yok,yok,var,yok,yok,yok,yok,yok,yok,yok,yok,yok,yok,yok,yok,yok,yok,yok,yok,yok,yok,yok,yok,yok,yok,yok,kademe_4,normal,kotu,kotu,75_100_m2,3_oda,orta_4_7_kat,1_banyo,yok,yok,yok,yok,dusuk,yok,yok,1_5_2_Milyon_TL_Arasi
Kastamonu,Merkez,Satilik,31_ve_uzeri,Bahce,Soba,bilinmiyor,yok,var,yok,var,yok,yok,yok,yok,yok,yok,yok,yok,yok,yok,yok,yok,yok,yok,yok,yok,yok,yok,yok,yok,yok,yok,yok,yok,yok,yok,kademe_4,bilinmiyor,bilinmiyor,bilinmiyor,75_100_m2,5_oda,bilinmiyor,2_banyo,yok,yok,yok,dusuk,yok,yok,yok,1_5_2_Milyon_TL_Arasi
Amasya,Merzifon,Satilik,0,3,Yerden_Isitma,bilinmiyor,yok,var,yok,yok,yok,var,yok,yok,var,yok,yok,yok,yok,yok,yok,yok,yok,yok,yok,yok,yok,yok,yok,yok,yok,var,yok,yok,yok,yok,kademe_4,iyi,bilinmiyor,kotu,75_100_m2,2_oda,orta_4_7_kat,1_banyo,yok,yok,yok,dusuk,yuksek,dusuk,yok,1_5_2_Milyon_TL_Arasi
Amasya,Merkez,Satilik,16_20_arasi,2,Kombi,bilinmiyor,yok,var,yok,var,yok,yok,var,var,yok,yok,var,yok,yok,yok,yok,yok,yok,yok,yok,yok,yok,yok,var,yok,yok,var,yok,yok,yok,yok,kademe_4,kotu,kotu,kotu,75_100_m2,3_oda,orta_4_7_kat,1_banyo,yok,yok,yok,dusuk,dusuk,orta,yok,2_3_Milyon_TL_Arasi
Sivas,Merkez,Satilik,6_10_arasi,12,Merkezi,bilinmiyor,yok,var,var,var,yok,var,yok,var,yok,yok,var,var,yok,yok,yok,yok,yok,yok,yok,yok,yok,yok,yok,yok,yok,var,yok,yok,yok,yok,kademe_4,normal,bilinmiyor,bilinmiyor,150_200_m2,4_oda,yuksek_8_15_kat,2_banyo,dusuk,dusuk,yok,dusuk,orta,yuksek,yok,5_7_Bucuk_Milyon_TL_Arasi
Kirsehir,Merkez,Satilik,0,2,Merkezi,bilinmiyor,yok,var,yok,yok,yok,yok,yok,yok,yok,yok,yok,yok,yok,yok,yok,yok,yok,yok,yok,yok,yok,yok,yok,yok,yok,yok,yok,yok,yok,yok,kademe_4,normal,bilinmiyor,kotu,150_200_m2,4_oda,orta_4_7_kat,1_banyo,yok,yok,yok,dusuk,yok,yok,yok,5_7_Bucuk_Milyon_TL_Arasi
Aksaray,Merkez,Satilik,26_30_arasi,Bahce,Soba,bilinmiyor,yok,var,yok,yok,yok,yok,var,var,yok,yok,yok,yok,yok,yok,yok,yok,yok,yok,yok,yok,yok,yok,yok,yok,yok,yok,yok,yok,yok,yok,kademe_4,kotu,kotu,bilinmiyor,100_125_m2,3_oda,bilinmiyor,1_banyo,yok,yok,yok,dusuk,yok,yok,yok,4_5_Milyon_TL_Arasi
Amasya,Merzifon,Satilik,0,3,Kombi_Dogalgaz,bilinmiyor,yok,var,var,yok,yok,var,yok,yok,yok,yok,var,yok,yok,yok,yok,yok,yok,yok,yok,yok,yok,yok,yok,yok,yok,var,yok,yok,yok,yok,kademe_4,iyi,kotu,iyi,50_75_m2,2_oda,orta_4_7_kat,1_banyo,dusuk,yok,dusuk,dusuk,orta,yuksek,yok,1_5_2_Milyon_TL_Arasi
Kastamonu,Cide,Satilik,0,1,Kombi_Dogalgaz,bilinmiyor,yok,var,yok,yok,yok,yok,yok,yok,yok,yok,var,yok,yok,var,yok,yok,yok,yok,yok,yok,yok,var,var,yok,yok,yok,yok,yok,yok,yok,kademe_4,bilinmiyor,bilinmiyor,bilinmiyor,75_100_m2,3_oda,orta_4_7_kat,1_banyo,yok,yok,yok,dusuk,yok,yuksek,yok,4_5_Milyon_TL_Arasi
Aksaray,Merkez,Satilik,1_5_arasi,Yuksek_Giris,Yerden_Isitma,bilinmiyor,yok,var,var,var,var,yok,yok,var,yok,yok,var,yok,yok,yok,yok,yok,yok,yok,yok,yok,yok,yok,yok,yok,yok,var,yok,yok,yok,yok,kademe_4,normal,normal,normal,0_50_m2,2_oda,orta_4_7_kat,1_banyo,yok,yok,yok,dusuk,dusuk,yuksek,yok,1_5_Milyon_TL_Alti
Kastamonu,Merkez,Satilik,26_30_arasi,Bahce,Kombi,bilinmiyor,yok,var,yok,yok,yok,var,var,var,var,yok,var,yok,yok,var,yok,yok,yok,yok,yok,yok,yok,yok,var,yok,yok,yok,yok,yok,yok,yok,kademe_4,normal,kotu,bilinmiyor,200_300_m2,6_oda,bilinmiyor,2_banyo,dusuk,yok,dusuk,orta,yuksek,yuksek,yok,1_5_2_Milyon_TL_Arasi
Kirsehir,Merkez,Satilik,31_ve_uzeri,3,Kombi,bilinmiyor,yok,var,var,var,yok,yok,yok,yok,yok,yok,yok,yok,yok,yok,yok,yok,yok,yok,yok,yok,yok,yok,yok,yok,yok,yok,yok,yok,yok,yok,kademe_4,kotu,bilinmiyor,normal,75_100_m2,3_oda,orta_4_7_kat,1_banyo,yok,yok,yok,dusuk,yok,yok,yok,1_5_Milyon_TL_Alti
Amasya,Merzifon,Satilik,1_5_arasi,3,Kombi_Dogalgaz,bilinmiyor,yok,var,var,var,var,yok,yok,var,yok,yok,var,yok,yok,var,yok,yok,yok,yok,yok,yok,yok,yok,yok,yok,yok,var,yok,yok,yok,yok,kademe_4,normal,normal,normal,50_75_m2,2_oda,orta_4_7_kat,1_banyo,yok,yok,yok,dusuk,yok,orta,yok,1_5_2_Milyon_TL_Arasi
Elazig,Merkez,Satilik,6_10_arasi,1,bilinmiyor,bilinmiyor,yok,var,yok,yok,yok,yok,yok,yok,yok,yok,yok,yok,yok,yok,yok,yok,yok,yok,yok,yok,yok,yok,yok,yok,yok,yok,yok,yok,yok,yok,kademe_4,normal,bilinmiyor,kotu,125_150_m2,4_oda,alcak_1_3_kat,2_banyo,yok,yok,yok,dusuk,yok,yok,yok,4_5_Milyon_TL_Arasi
Amasya,Merkez,Satilik,0,1,Kombi,bilinmiyor,yok,var,yok,var,yok,yok,yok,yok,yok,yok,var,yok,yok,var,yok,yok,yok,yok,yok,yok,yok,yok,yok,yok,yok,yok,yok,yok,yok,yok,kademe_4,bilinmiyor,iyi,bilinmiyor,75_100_m2,2_oda,orta_4_7_kat,1_banyo,yok,yok,yok,dusuk,orta,orta,yok,3_4_Milyon_TL_Arasi
Afyonkarahisar,Merkez,Satilik,21_25_arasi,3,Kombi,bilinmiyor,yok,var,yok,var,yok,var,yok,var,var,yok,var,yok,yok,var,yok,yok,yok,yok,yok,yok,yok,yok,yok,yok,yok,var,yok,yok,yok,yok,kademe_4,kotu,bilinmiyor,bilinmiyor,125_150_m2,4_oda,orta_4_7_kat,1_banyo,yok,yok,dusuk,dusuk,orta,orta,yok,2_3_Milyon_TL_Arasi
Elazig,Merkez,Satilik,0,Bahce,Yerden_Isitma,bilinmiyor,yok,yok,yok,var,yok,var,var,var,var,yok,var,var,yok,var,var,yok,yok,yok,var,yok,yok,yok,var,yok,yok,yok,yok,yok,yok,var,kademe_4,iyi,iyi,bilinmiyor,300_m2_ve_ustu,7_oda_ve_ustu,orta_4_7_kat,3_banyo_ve_ustu,yok,dusuk,yok,dusuk,yok,yuksek,yok,10_Milyon_TL_Ustu
Amasya,Merzifon,Satilik,1_5_arasi,1,Kombi_Dogalgaz,bilinmiyor,yok,var,var,var,yok,var,yok,var,yok,yok,var,yok,yok,var,yok,yok,yok,yok,yok,yok,yok,yok,yok,yok,yok,var,yok,yok,yok,yok,kademe_4,normal,bilinmiyor,normal,125_150_m2,4_oda,orta_4_7_kat,2_banyo,yok,yok,yok,dusuk,yok,yuksek,yok,3_4_Milyon_TL_Arasi
Afyonkarahisar,Merkez,Satilik,6_10_arasi,3,Kombi_Dogalgaz,bilinmiyor,yok,var,yok,yok,yok,var,yok,var,yok,yok,yok,yok,yok,yok,yok,yok,yok,yok,yok,yok,yok,yok,yok,yok,yok,yok,yok,yok,yok,yok,kademe_4,normal,normal,bilinmiyor,50_75_m2,2_oda,orta_4_7_kat,1_banyo,yok,yok,yok,dusuk,yok,yok,yok,2_3_Milyon_TL_Arasi
Amasya,Merkez,Satilik,6_10_arasi,6,Yerden_Isitma,bilinmiyor,yok,var,yok,var,yok,yok,yok,yok,yok,yok,var,var,yok,var,yok,yok,yok,yok,yok,yok,yok,yok,yok,yok,yok,yok,yok,yok,yok,yok,kademe_4,iyi,iyi,iyi,150_200_m2,4_oda,yuksek_8_15_kat,2_banyo,dusuk,dusuk,yok,dusuk,orta,yuksek,yok,5_7_Bucuk_Milyon_TL_Arasi
Amasya,Merzifon,Satilik,1_5_arasi,Kot_2,Kombi,bilinmiyor,yok,yok,yok,yok,yok,yok,var,yok,yok,yok,yok,yok,yok,yok,yok,yok,yok,yok,yok,yok,yok,yok,yok,yok,yok,yok,yok,yok,yok,yok,kademe_4,bilinmiyor,bilinmiyor,bilinmiyor,125_150_m2,5_oda,orta_4_7_kat,2_banyo,yok,yok,yok,dusuk,yok,yok,yok,3_4_Milyon_TL_Arasi
Amasya,Suluova,Satilik,1_5_arasi,bilinmiyor,Kombi,bilinmiyor,yok,yok,yok,yok,yok,yok,yok,yok,yok,yok,yok,yok,yok,yok,yok,yok,yok,yok,yok,yok,yok,yok,yok,yok,yok,yok,yok,yok,yok,yok,kademe_4,bilinmiyor,bilinmiyor,bilinmiyor,150_200_m2,3_oda,alcak_1_3_kat,1_banyo,yok,yok,yok,yok,yok,yok,yok,1_5_Milyon_TL_Alti
Kirsehir,Merkez,Satilik,0,1,Kombi,bilinmiyor,yok,var,yok,yok,yok,yok,yok,yok,yok,yok,yok,yok,yok,yok,yok,yok,yok,yok,yok,yok,yok,yok,yok,yok,yok,yok,yok,yok,yok,yok,kademe_4,normal,bilinmiyor,iyi,50_75_m2,4_oda,orta_4_7_kat,1_banyo,yok,yok,yok,dusuk,yok,yok,yok,2_3_Milyon_TL_Arasi
Aksaray,Merkez,Satilik,26_30_arasi,Giris,Kombi,bilinmiyor,yok,yok,yok,yok,yok,var,yok,var,var,yok,yok,yok,yok,yok,yok,yok,yok,yok,yok,yok,yok,yok,yok,yok,yok,var,yok,yok,yok,yok,kademe_4,normal,kotu,bilinmiyor,125_150_m2,4_oda,orta_4_7_kat,1_banyo,dusuk,yok,yok,dusuk,dusuk,dusuk,yok,1_5_2_Milyon_TL_Arasi
Aksaray,Merkez,Satilik,21_25_arasi,4,Kombi_Dogalgaz,bilinmiyor,yok,var,var,var,yok,yok,yok,var,yok,yok,var,yok,yok,yok,yok,yok,yok,yok,yok,yok,yok,yok,yok,yok,yok,yok,yok,yok,yok,yok,kademe_4,kotu,normal,kotu,125_150_m2,4_oda,orta_4_7_kat,1_banyo,yok,yok,yok,dusuk,dusuk,orta,yok,3_4_Milyon_TL_Arasi
Amasya,Merkez,Satilik,6_10_arasi,Giris,Kombi_Dogalgaz,bilinmiyor,yok,yok,yok,yok,var,yok,yok,yok,yok,yok,yok,yok,yok,yok,yok,yok,yok,yok,yok,yok,yok,yok,yok,yok,yok,yok,yok,yok,yok,yok,kademe_4,normal,normal,bilinmiyor,0_50_m2,2_oda,orta_4_7_kat,1_banyo,yok,yok,yok,dusuk,yok,yok,yok,1_5_2_Milyon_TL_Arasi
Amasya,Merzifon,Satilik,0,1,Yerden_Isitma,bilinmiyor,yok,var,yok,yok,yok,yok,var,yok,var,yok,var,yok,yok,yok,yok,yok,yok,yok,yok,yok,yok,yok,yok,yok,yok,yok,yok,yok,yok,yok,kademe_4,normal,bilinmiyor,iyi,100_125_m2,3_oda,orta_4_7_kat,1_banyo,yok,yok,yok,dusuk,orta,dusuk,yok,3_4_Milyon_TL_Arasi
Amasya,Merkez,Satilik,0,1,Yerden_Isitma,bilinmiyor,yok,var,var,var,yok,yok,yok,var,yok,yok,var,yok,yok,yok,yok,yok,yok,yok,yok,yok,yok,yok,yok,yok,yok,yok,yok,yok,yok,yok,kademe_4,iyi,bilinmiyor,bilinmiyor,75_100_m2,3_oda,orta_4_7_kat,1_banyo,yok,yok,yok,dusuk,orta,orta,yok,3_4_Milyon_TL_Arasi
Aksaray,Merkez,Satilik,0,2,Kombi_Dogalgaz,bilinmiyor,yok,var,var,var,yok,yok,yok,var,yok,yok,var,yok,yok,yok,yok,yok,yok,yok,yok,yok,yok,yok,yok,yok,yok,var,yok,yok,yok,yok,kademe_4,normal,normal,bilinmiyor,0_50_m2,2_oda,orta_4_7_kat,1_banyo,dusuk,yok,yok,dusuk,yok,yuksek,yok,1_5_Milyon_TL_Alti
Kastamonu,Daday,Satilik,11_15_arasi,4,Kombi,bilinmiyor,yok,var,var,var,yok,var,yok,var,yok,yok,var,yok,yok,var,yok,yok,yok,yok,yok,yok,yok,yok,var,yok,yok,yok,yok,yok,yok,yok,kademe_4,kotu,kotu,kotu,100_125_m2,3_oda,yuksek_8_15_kat,1_banyo,dusuk,dusuk,dusuk,orta,yuksek,yuksek,yok,2_3_Milyon_TL_Arasi
Aksaray,Merkez,Satilik,1_5_arasi,2,Kombi,bilinmiyor,yok,var,yok,yok,yok,yok,yok,yok,yok,yok,yok,yok,yok,yok,yok,yok,yok,yok,yok,yok,yok,yok,yok,yok,yok,yok,yok,yok,yok,yok,kademe_4,bilinmiyor,bilinmiyor,bilinmiyor,50_75_m2,3_oda,alcak_1_3_kat,1_banyo,yok,yok,yok,yok,yok,yok,yok,2_3_Milyon_TL_Arasi
Aksaray,Merkez,Satilik,1_5_arasi,Yuksek_Giris,Kombi,bilinmiyor,yok,var,var,yok,yok,yok,yok,yok,yok,yok,yok,yok,yok,yok,yok,yok,yok,yok,yok,yok,yok,yok,yok,yok,yok,yok,yok,yok,yok,yok,kademe_4,kotu,iyi,iyi,75_100_m2,3_oda,orta_4_7_kat,1_banyo,yok,yok,yok,dusuk,yok,yok,yok,2_3_Milyon_TL_Arasi
Aksaray,Merkez,Satilik,0,2,Yerden_Isitma,bilinmiyor,yok,var,var,yok,var,yok,yok,var,yok,yok,var,yok,yok,yok,yok,yok,yok,yok,yok,yok,yok,yok,yok,yok,yok,var,yok,yok,yok,yok,kademe_4,normal,kotu,iyi,0_50_m2,2_oda,orta_4_7_kat,1_banyo,yok,yok,dusuk,dusuk,yuksek,orta,yok,1_5_Milyon_TL_Alti
Amasya,Merkez,Satilik,31_ve_uzeri,bilinmiyor,bilinmiyor,bilinmiyor,yok,yok,yok,yok,yok,yok,yok,yok,yok,yok,yok,yok,yok,yok,yok,yok,yok,yok,yok,yok,yok,yok,yok,yok,yok,yok,yok,yok,yok,yok,kademe_4,bilinmiyor,bilinmiyor,bilinmiyor,300_m2_ve_ustu,2_oda,alcak_1_3_kat,1_banyo,yok,yok,yok,dusuk,yok,yok,yok,1_5_Milyon_TL_Alti
Afyonkarahisar,Merkez,Satilik,31_ve_uzeri,1,Kombi,bilinmiyor,yok,var,var,yok,yok,var,yok,var,yok,yok,var,yok,yok,yok,yok,yok,yok,yok,yok,yok,yok,yok,yok,yok,yok,yok,yok,yok,yok,yok,kademe_4,normal,normal,bilinmiyor,75_100_m2,4_oda,orta_4_7_kat,1_banyo,yok,yok,dusuk,dusuk,yuksek,yuksek,yok,2_3_Milyon_TL_Arasi
Kirsehir,Merkez,Satilik,0,Cati,Kombi_Dogalgaz,bilinmiyor,yok,yok,yok,yok,yok,var,yok,var,var,yok,yok,yok,yok,yok,yok,yok,yok,yok,yok,yok,yok,yok,yok,yok,yok,yok,yok,yok,yok,yok,kademe_4,bilinmiyor,bilinmiyor,bilinmiyor,125_150_m2,4_oda,orta_4_7_kat,1_banyo,yok,yok,yok,dusuk,yok,yok,yok,3_4_Milyon_TL_Arasi
Amasya,Merzifon,Satilik,1_5_arasi,3,Kombi_Dogalgaz,bilinmiyor,yok,var,yok,var,yok,yok,var,var,yok,yok,var,yok,yok,var,yok,yok,yok,yok,yok,yok,yok,yok,yok,yok,yok,var,yok,yok,yok,yok,kademe_4,iyi,iyi,iyi,100_125_m2,3_oda,orta_4_7_kat,1_banyo,yok,yok,yok,dusuk,orta,orta,yok,2_3_Milyon_TL_Arasi
Artvin,Arhavi,Satilik,31_ve_uzeri,1,bilinmiyor,bilinmiyor,yok,var,yok,yok,yok,yok,yok,yok,yok,yok,yok,yok,yok,yok,yok,yok,yok,yok,yok,yok,yok,yok,yok,yok,yok,yok,yok,yok,yok,yok,kademe_4,bilinmiyor,bilinmiyor,bilinmiyor,100_125_m2,4_oda,alcak_1_3_kat,1_banyo,yok,yok,yok,dusuk,yok,yok,yok,2_3_Milyon_TL_Arasi
Amasya,Merkez,Satilik,21_25_arasi,3,Kombi,bilinmiyor,yok,var,yok,var,var,yok,yok,yok,yok,yok,yok,yok,yok,yok,yok,yok,yok,yok,yok,yok,yok,yok,yok,yok,yok,var,yok,yok,yok,yok,kademe_4,iyi,normal,bilinmiyor,150_200_m2,5_oda,orta_4_7_kat,2_banyo,yok,yok,yok,yok,yok,yok,yok,5_7_Bucuk_Milyon_TL_Arasi
Amasya,Merzifon,Satilik,0,2,Yerden_Isitma,bilinmiyor,yok,var,var,yok,yok,var,yok,yok,var,yok,yok,yok,yok,yok,yok,yok,yok,yok,yok,yok,yok,yok,yok,yok,yok,yok,yok,yok,yok,yok,kademe_4,bilinmiyor,bilinmiyor,bilinmiyor,100_125_m2,3_oda,orta_4_7_kat,2_banyo,yok,yok,yok,dusuk,yok,yok,yok,3_4_Milyon_TL_Arasi
Aksaray,Merkez,Satilik,1_5_arasi,2,Kombi,bilinmiyor,yok,var,yok,yok,var,yok,var,var,yok,yok,yok,yok,yok,yok,yok,yok,yok,yok,yok,yok,yok,yok,yok,yok,yok,yok,yok,yok,yok,yok,kademe_4,kotu,kotu,bilinmiyor,50_75_m2,2_oda,orta_4_7_kat,1_banyo,yok,yok,yok,dusuk,yok,yok,yok,1_5_2_Milyon_TL_Arasi
Afyonkarahisar,Merkez,Satilik,16_20_arasi,bilinmiyor,Soba,bilinmiyor,yok,var,yok,yok,yok,yok,yok,yok,yok,yok,yok,yok,yok,yok,yok,yok,yok,yok,yok,yok,yok,yok,yok,yok,yok,yok,yok,yok,yok,yok,kademe_4,kotu,kotu,bilinmiyor,300_m2_ve_ustu,4_oda,alcak_1_3_kat,1_banyo,yok,yok,yok,dusuk,yok,yok,yok,3_4_Milyon_TL_Arasi
Amasya,Merkez,Satilik,0,4,Kombi_Dogalgaz,bilinmiyor,yok,yok,yok,yok,yok,yok,yok,yok,yok,yok,yok,yok,yok,yok,yok,yok,yok,yok,yok,yok,yok,yok,yok,yok,yok,yok,yok,yok,yok,yok,kademe_4,bilinmiyor,bilinmiyor,bilinmiyor,50_75_m2,2_oda,orta_4_7_kat,1_banyo,yok,yok,yok,dusuk,yok,yok,yok,1_5_2_Milyon_TL_Arasi
Amasya,Merkez,Satilik,11_15_arasi,5,Kombi,bilinmiyor,yok,var,yok,var,yok,var,var,var,yok,yok,var,var,yok,var,yok,yok,yok,yok,yok,yok,yok,yok,yok,yok,yok,var,yok,yok,yok,yok,kademe_4,iyi,normal,bilinmiyor,150_200_m2,4_oda,orta_4_7_kat,2_banyo,yok,yok,dusuk,dusuk,dusuk,yuksek,yok,5_7_Bucuk_Milyon_TL_Arasi
Kastamonu,Inebolu,Satilik,1_5_arasi,1,Kombi_Dogalgaz,bilinmiyor,yok,yok,yok,yok,yok,var,var,var,var,yok,yok,yok,yok,yok,yok,yok,yok,yok,yok,yok,yok,var,var,yok,yok,var,yok,yok,yok,yok,kademe_4,kotu,bilinmiyor,bilinmiyor,100_125_m2,3_oda,yuksek_8_15_kat,2_banyo,yok,yok,yok,orta,orta,yok,yok,3_4_Milyon_TL_Arasi
Amasya,Merzifon,Satilik,31_ve_uzeri,bilinmiyor,Soba,bilinmiyor,yok,yok,yok,yok,yok,var,yok,yok,yok,yok,yok,yok,yok,yok,yok,yok,yok,yok,yok,yok,yok,yok,yok,yok,yok,var,yok,yok,yok,yok,kademe_4,kotu,bilinmiyor,kotu,50_75_m2,3_oda,alcak_1_3_kat,1_banyo,yok,yok,yok,dusuk,dusuk,yok,yok,1_5_Milyon_TL_Alti
Aksaray,Merkez,Satilik,6_10_arasi,4,Kombi,bilinmiyor,yok,var,var,var,yok,yok,var,var,yok,yok,var,yok,yok,var,yok,yok,yok,yok,yok,yok,yok,yok,var,yok,yok,var,yok,yok,yok,yok,kademe_4,normal,bilinmiyor,normal,150_200_m2,4_oda,orta_4_7_kat,1_banyo,yok,dusuk,dusuk,orta,yuksek,yuksek,yok,5_7_Bucuk_Milyon_TL_Arasi
Amasya,Merzifon,Satilik,0,1,Kombi_Dogalgaz,bilinmiyor,yok,var,yok,yok,yok,var,yok,yok,yok,yok,var,yok,yok,yok,yok,yok,yok,yok,yok,yok,yok,yok,yok,yok,yok,yok,yok,yok,yok,yok,kademe_4,iyi,bilinmiyor,iyi,50_75_m2,2_oda,orta_4_7_kat,1_banyo,dusuk,yok,yok,dusuk,yok,yuksek,yok,2_3_Milyon_TL_Arasi
Aksaray,Merkez,Satilik,16_20_arasi,bilinmiyor,Soba,bilinmiyor,yok,yok,yok,yok,yok,var,var,var,var,yok,yok,yok,yok,yok,yok,yok,yok,yok,yok,yok,yok,yok,yok,yok,yok,yok,yok,yok,yok,yok,kademe_4,bilinmiyor,bilinmiyor,bilinmiyor,300_m2_ve_ustu,4_oda,alcak_1_3_kat,1_banyo,yok,yok,yok,dusuk,dusuk,yok,yok,5_7_Bucuk_Milyon_TL_Arasi
Afyonkarahisar,Merkez,Satilik,21_25_arasi,4,Kombi_Dogalgaz,bilinmiyor,yok,var,var,var,yok,yok,var,var,yok,yok,var,yok,yok,var,yok,yok,yok,yok,yok,yok,yok,yok,yok,yok,yok,var,yok,yok,yok,yok,kademe_4,kotu,kotu,iyi,125_150_m2,4_oda,orta_4_7_kat,1_banyo,yok,yok,yok,orta,orta,yuksek,yok,3_4_Milyon_TL_Arasi
Kastamonu,Tosya,Satilik,21_25_arasi,Zemin,Kombi,bilinmiyor,yok,yok,yok,yok,yok,yok,yok,yok,yok,yok,yok,yok,yok,yok,yok,yok,yok,yok,yok,yok,yok,yok,yok,yok,yok,var,yok,yok,yok,yok,kademe_4,bilinmiyor,normal,bilinmiyor,50_75_m2,2_oda,orta_4_7_kat,1_banyo,yok,yok,yok,dusuk,dusuk,yok,yok,1_5_2_Milyon_TL_Arasi
Aksaray,Merkez,Satilik,1_5_arasi,3,Kombi,bilinmiyor,yok,var,var,yok,yok,var,yok,var,var,yok,yok,yok,yok,yok,yok,yok,yok,yok,yok,yok,yok,yok,yok,yok,yok,var,yok,yok,yok,yok,kademe_4,kotu,normal,bilinmiyor,150_200_m2,2_oda,orta_4_7_kat,1_banyo,dusuk,yok,yok,dusuk,dusuk,dusuk,yok,4_5_Milyon_TL_Arasi
Kirsehir,Merkez,Satilik,0,4,Yerden_Isitma,bilinmiyor,yok,var,yok,yok,yok,yok,yok,var,yok,yok,yok,yok,yok,yok,yok,yok,yok,yok,yok,yok,yok,yok,yok,yok,yok,yok,yok,yok,yok,yok,kademe_4,iyi,iyi,iyi,125_150_m2,4_oda,orta_4_7_kat,2_banyo,yok,yok,yok,dusuk,yok,yok,yok,4_5_Milyon_TL_Arasi
Amasya,Merzifon,Satilik,26_30_arasi,3,Kombi_Dogalgaz,bilinmiyor,yok,yok,yok,yok,yok,var,var,yok,yok,yok,yok,yok,yok,yok,yok,yok,yok,yok,yok,yok,yok,yok,yok,yok,yok,yok,yok,yok,yok,yok,kademe_4,kotu,normal,kotu,125_150_m2,3_oda,orta_4_7_kat,1_banyo,yok,yok,yok,dusuk,yok,yok,yok,2_3_Milyon_TL_Arasi
Kirsehir,Merkez,Satilik,0,1,Kombi,bilinmiyor,yok,yok,yok,yok,yok,yok,yok,yok,yok,yok,yok,yok,yok,yok,yok,yok,yok,yok,yok,yok,yok,yok,yok,yok,yok,yok,yok,yok,yok,yok,kademe_4,kotu,bilinmiyor,iyi,50_75_m2,2_oda,orta_4_7_kat,1_banyo,yok,yok,yok,dusuk,yok,yok,yok,2_3_Milyon_TL_Arasi
Afyonkarahisar,Merkez,Satilik,31_ve_uzeri,Bodrum,Kombi,bilinmiyor,yok,yok,yok,yok,var,yok,yok,yok,yok,yok,yok,yok,yok,yok,yok,yok,yok,yok,yok,yok,yok,yok,yok,yok,yok,var,yok,yok,yok,yok,kademe_4,kotu,bilinmiyor,bilinmiyor,75_100_m2,3_oda,orta_4_7_kat,1_banyo,yok,yok,dusuk,dusuk,orta,yok,yok,1_5_Milyon_TL_Alti
Amasya,Merkez,Satilik,21_25_arasi,3,Kombi_Dogalgaz,bilinmiyor,yok,var,yok,var,yok,yok,yok,yok,yok,yok,yok,yok,yok,yok,yok,yok,yok,yok,yok,yok,yok,yok,yok,yok,yok,yok,yok,yok,yok,yok,kademe_4,kotu,kotu,kotu,125_150_m2,4_oda,orta_4_7_kat,1_banyo,yok,yok,yok,dusuk,yok,yok,yok,2_3_Milyon_TL_Arasi
Amasya,Merkez,Satilik,1_5_arasi,3,Merkezi,bilinmiyor,yok,var,yok,yok,yok,var,var,var,var,yok,var,var,yok,var,yok,yok,yok,yok,yok,yok,yok,yok,var,yok,yok,var,yok,yok,yok,yok,kademe_4,iyi,bilinmiyor,bilinmiyor,150_200_m2,4_oda,yuksek_8_15_kat,2_banyo,dusuk,dusuk,dusuk,orta,yuksek,yuksek,yok,5_7_Bucuk_Milyon_TL_Arasi
Kastamonu,Merkez,Satilik,1_5_arasi,1,Kombi,bilinmiyor,yok,var,var,var,yok,var,yok,var,yok,yok,yok,yok,yok,yok,yok,yok,yok,yok,yok,yok,yok,yok,var,yok,yok,var,yok,yok,yok,yok,kademe_4,iyi,bilinmiyor,bilinmiyor,75_100_m2,3_oda,orta_4_7_kat,1_banyo,yok,yok,yok,dusuk,dusuk,dusuk,yok,2_3_Milyon_TL_Arasi
Elazig,Merkez,Satilik,6_10_arasi,3,Merkezi,bilinmiyor,yok,yok,yok,yok,yok,yok,yok,yok,yok,yok,yok,yok,yok,yok,yok,yok,yok,yok,yok,yok,yok,yok,yok,yok,yok,yok,yok,yok,yok,yok,kademe_4,normal,bilinmiyor,normal,75_100_m2,3_oda,orta_4_7_kat,1_banyo,yok,yok,yok,dusuk,yok,yok,yok,2_3_Milyon_TL_Arasi
Amasya,Merzifon,Satilik,0,3,Kombi_Dogalgaz,bilinmiyor,yok,yok,yok,yok,yok,yok,yok,yok,yok,yok,yok,yok,yok,yok,yok,yok,yok,yok,yok,yok,yok,yok,yok,yok,yok,yok,yok,yok,yok,yok,kademe_4,bilinmiyor,bilinmiyor,bilinmiyor,50_75_m2,2_oda,orta_4_7_kat,1_banyo,yok,yok,yok,dusuk,yok,yok,yok,2_3_Milyon_TL_Arasi
Aksaray,Merkez,Satilik,0,3,Kombi,bilinmiyor,yok,var,var,yok,var,yok,yok,yok,var,yok,yok,yok,yok,yok,yok,yok,yok,yok,yok,yok,yok,yok,yok,yok,yok,var,yok,yok,yok,yok,kademe_4,normal,normal,bilinmiyor,0_50_m2,2_oda,orta_4_7_kat,1_banyo,dusuk,yok,yok,dusuk,dusuk,dusuk,yok,1_5_2_Milyon_TL_Arasi
Artvin,Hopa,Satilik,0,5,Merkezi,bilinmiyor,yok,var,yok,var,yok,yok,yok,yok,var,yok,yok,yok,yok,yok,yok,yok,yok,yok,yok,yok,yok,var,var,yok,yok,yok,yok,yok,yok,yok,kademe_4,normal,normal,bilinmiyor,125_150_m2,4_oda,yuksek_8_15_kat,1_banyo,yok,yok,yok,dusuk,orta,yok,yok,5_7_Bucuk_Milyon_TL_Arasi
Kastamonu,Merkez,Satilik,21_25_arasi,bilinmiyor,Kombi_Dogalgaz,bilinmiyor,yok,yok,yok,var,yok,yok,yok,var,yok,yok,yok,yok,yok,yok,yok,yok,yok,yok,yok,yok,yok,yok,yok,yok,yok,yok,yok,yok,yok,yok,kademe_4,kotu,kotu,bilinmiyor,200_300_m2,7_oda_ve_ustu,alcak_1_3_kat,2_banyo,yok,yok,yok,dusuk,yok,yok,yok,3_4_Milyon_TL_Arasi
Afyonkarahisar,Merkez,Satilik,16_20_arasi,Bahce,Kombi,bilinmiyor,yok,var,yok,yok,yok,yok,yok,var,var,yok,yok,yok,yok,yok,yok,yok,yok,yok,yok,yok,yok,yok,yok,yok,yok,yok,yok,yok,yok,yok,kademe_4,normal,kotu,bilinmiyor,125_150_m2,4_oda,bilinmiyor,1_banyo,yok,yok,yok,dusuk,yok,yok,yok,7_Bucuk_10_Milyon_TL_Arasi
Aksaray,Merkez,Satilik,11_15_arasi,Giris,Merkezi,bilinmiyor,yok,var,yok,yok,yok,yok,var,var,yok,yok,yok,yok,yok,yok,yok,yok,yok,yok,yok,yok,yok,yok,yok,yok,yok,yok,yok,yok,yok,yok,kademe_4,normal,normal,kotu,75_100_m2,3_oda,yuksek_8_15_kat,1_banyo,yok,yok,yok,yok,yok,yok,yok,2_3_Milyon_TL_Arasi
Afyonkarahisar,Ihsaniye,Satilik,1_5_arasi,bilinmiyor,Yerden_Isitma,bilinmiyor,yok,var,yok,var,yok,var,var,var,var,yok,yok,yok,yok,yok,yok,yok,yok,yok,yok,var,yok,yok,var,yok,yok,var,yok,var,yok,yok,kademe_4,iyi,normal,kotu,125_150_m2,4_oda,alcak_1_3_kat,2_banyo,yok,yok,yok,dusuk,yok,yok,yok,10_Milyon_TL_Ustu
Kastamonu,Taskopru,Satilik,16_20_arasi,3,Soba,bilinmiyor,yok,var,yok,yok,yok,yok,yok,var,yok,yok,var,yok,yok,var,yok,yok,yok,yok,yok,yok,yok,yok,yok,yok,yok,yok,yok,yok,yok,yok,kademe_4,kotu,kotu,bilinmiyor,125_150_m2,4_oda,orta_4_7_kat,1_banyo,yok,yok,yok,orta,yuksek,orta,yok,2_3_Milyon_TL_Arasi
Artvin,Merkez,Satilik,11_15_arasi,6,Kombi_Dogalgaz,bilinmiyor,yok,var,var,var,var,yok,var,yok,yok,yok,yok,yok,yok,yok,yok,yok,yok,yok,yok,yok,yok,yok,yok,yok,yok,yok,yok,yok,yok,yok,kademe_4,normal,bilinmiyor,normal,150_200_m2,5_oda,orta_4_7_kat,1_banyo,yok,yok,yok,dusuk,yok,yok,yok,3_4_Milyon_TL_Arasi
Aksaray,Merkez,Satilik,0,2,Yerden_Isitma,bilinmiyor,yok,var,var,yok,yok,yok,yok,yok,yok,yok,yok,yok,yok,yok,yok,yok,yok,yok,yok,yok,yok,yok,yok,yok,yok,yok,yok,yok,yok,yok,kademe_4,iyi,bilinmiyor,kotu,100_125_m2,3_oda,orta_4_7_kat,1_banyo,yok,yok,yok,dusuk,yok,yok,yok,4_5_Milyon_TL_Arasi
Amasya,Merzifon,Satilik,0,1,Kombi,bilinmiyor,yok,var,yok,yok,yok,yok,yok,var,var,yok,var,yok,yok,yok,yok,yok,yok,yok,yok,yok,yok,yok,yok,yok,yok,yok,yok,yok,yok,yok,kademe_4,bilinmiyor,bilinmiyor,bilinmiyor,125_150_m2,4_oda,orta_4_7_kat,1_banyo,yok,yok,yok,yok,yok,dusuk,yok,5_7_Bucuk_Milyon_TL_Arasi
Elazig,Merkez,Satilik,0,4,Kombi_Dogalgaz,bilinmiyor,yok,var,var,var,yok,yok,yok,var,var,yok,var,var,yok,var,yok,yok,yok,yok,yok,yok,yok,yok,yok,yok,yok,var,yok,yok,yok,yok,kademe_4,normal,bilinmiyor,bilinmiyor,150_200_m2,4_oda,yuksek_8_15_kat,2_banyo,orta,dusuk,yok,dusuk,yok,yuksek,yok,5_7_Bucuk_Milyon_TL_Arasi
Amasya,Merkez,Satilik,6_10_arasi,3,Kombi,bilinmiyor,yok,var,yok,var,yok,yok,yok,var,yok,yok,var,yok,yok,yok,yok,yok,yok,yok,yok,yok,yok,yok,yok,yok,yok,var,yok,yok,yok,yok,kademe_4,kotu,bilinmiyor,kotu,125_150_m2,4_oda,orta_4_7_kat,2_banyo,yok,yok,dusuk,dusuk,orta,orta,yok,5_7_Bucuk_Milyon_TL_Arasi
Kastamonu,Inebolu,Satilik,31_ve_uzeri,Bahce,isitma_yok_komur_odun,bilinmiyor,yok,var,yok,yok,yok,var,var,var,var,yok,yok,yok,yok,yok,yok,yok,yok,yok,yok,yok,yok,yok,var,yok,yok,var,yok,yok,yok,yok,kademe_4,bilinmiyor,bilinmiyor,bilinmiyor,150_200_m2,4_oda,alcak_1_3_kat,1_banyo,yok,yok,dusuk,dusuk,yuksek,yok,yok,10_Milyon_TL_Ustu
Aksaray,Merkez,Satilik,0,1,Kombi,bilinmiyor,yok,var,yok,yok,var,var,yok,yok,var,yok,yok,yok,yok,yok,yok,yok,yok,yok,yok,yok,yok,yok,yok,yok,yok,var,yok,yok,yok,yok,kademe_4,iyi,kotu,bilinmiyor,50_75_m2,2_oda,orta_4_7_kat,1_banyo,yok,yok,dusuk,dusuk,orta,dusuk,yok,1_5_2_Milyon_TL_Arasi
Afyonkarahisar,Merkez,Satilik,11_15_arasi,bilinmiyor,Kombi,bilinmiyor,yok,yok,yok,var,yok,var,var,var,yok,yok,var,var,yok,var,yok,yok,yok,yok,yok,yok,yok,yok,var,yok,yok,var,yok,yok,yok,yok,kademe_4,kotu,kotu,bilinmiyor,200_300_m2,7_oda_ve_ustu,orta_4_7_kat,3_banyo_ve_ustu,yok,dusuk,dusuk,dusuk,yok,yuksek,yok,10_Milyon_TL_Ustu
Amasya,Merzifon,Satilik,0,Giris,Kombi_Dogalgaz,bilinmiyor,yok,yok,yok,yok,yok,var,var,yok,yok,yok,yok,yok,yok,yok,yok,yok,yok,yok,yok,yok,yok,yok,yok,yok,yok,yok,yok,yok,yok,yok,kademe_4,iyi,normal,bilinmiyor,50_75_m2,3_oda,orta_4_7_kat,1_banyo,yok,yok,yok,dusuk,yok,yok,yok,1_5_2_Milyon_TL_Arasi
Kastamonu,Merkez,Satilik,0,5,Kombi,bilinmiyor,yok,var,var,var,yok,var,yok,var,yok,yok,var,yok,yok,var,yok,yok,yok,yok,yok,yok,yok,yok,var,yok,yok,var,yok,yok,yok,yok,kademe_4,bilinmiyor,iyi,bilinmiyor,75_100_m2,3_oda,orta_4_7_kat,1_banyo,dusuk,yok,dusuk,orta,orta,yuksek,yok,2_3_Milyon_TL_Arasi
Amasya,Merzifon,Satilik,0,Zemin,Yerden_Isitma,bilinmiyor,yok,var,var,var,yok,yok,var,yok,yok,yok,var,yok,yok,yok,yok,yok,yok,yok,yok,yok,yok,yok,yok,yok,yok,yok,yok,yok,yok,yok,kademe_4,iyi,normal,bilinmiyor,75_100_m2,2_oda,orta_4_7_kat,1_banyo,dusuk,yok,yok,dusuk,yok,yuksek,yok,1_5_2_Milyon_TL_Arasi
Aksaray,Merkez,Satilik,21_25_arasi,bilinmiyor,Soba,bilinmiyor,yok,yok,yok,yok,yok,yok,yok,yok,yok,yok,yok,yok,yok,yok,yok,yok,yok,yok,yok,yok,yok,yok,yok,yok,yok,yok,yok,yok,yok,yok,kademe_4,bilinmiyor,bilinmiyor,bilinmiyor,150_200_m2,4_oda,alcak_1_3_kat,1_banyo,yok,yok,yok,dusuk,yok,yok,yok,7_Bucuk_10_Milyon_TL_Arasi
Aksaray,Merkez,Satilik,0,2,Kombi,bilinmiyor,yok,var,yok,yok,yok,yok,var,yok,var,yok,var,yok,yok,var,yok,yok,yok,yok,yok,yok,yok,yok,var,yok,yok,var,yok,yok,yok,yok,kademe_4,kotu,bilinmiyor,iyi,125_150_m2,4_oda,orta_4_7_kat,2_banyo,yok,yok,dusuk,dusuk,orta,yuksek,yok,5_7_Bucuk_Milyon_TL_Arasi
Amasya,Merkez,Satilik,6_10_arasi,3,Yerden_Isitma,bilinmiyor,yok,var,yok,var,var,yok,yok,var,yok,yok,var,yok,yok,yok,yok,yok,yok,yok,yok,yok,yok,yok,yok,yok,yok,var,yok,yok,yok,yok,kademe_4,normal,bilinmiyor,normal,50_75_m2,2_oda,orta_4_7_kat,1_banyo,yok,yok,yok,dusuk,orta,orta,yok,1_5_2_Milyon_TL_Arasi
Kastamonu,Abana,Satilik,16_20_arasi,4,Soba,bilinmiyor,yok,yok,yok,yok,yok,yok,yok,yok,yok,yok,yok,yok,yok,yok,yok,yok,yok,yok,yok,yok,yok,yok,yok,yok,yok,yok,yok,yok,yok,yok,kademe_4,kotu,bilinmiyor,bilinmiyor,100_125_m2,3_oda,orta_4_7_kat,1_banyo,yok,yok,yok,dusuk,yok,yok,yok,2_3_Milyon_TL_Arasi
Kastamonu,Merkez,Satilik,0,13,Merkezi,bilinmiyor,yok,var,var,var,var,var,yok,yok,var,yok,var,yok,yok,var,yok,yok,yok,yok,yok,yok,yok,yok,var,yok,yok,var,yok,yok,yok,yok,kademe_4,bilinmiyor,bilinmiyor,bilinmiyor,50_75_m2,2_oda,cok_yuksek_16_ustu_kat,1_banyo,dusuk,yok,yok,orta,yuksek,yuksek,yok,2_3_Milyon_TL_Arasi
Amasya,Merkez,Satilik,11_15_arasi,bilinmiyor,Kombi_Dogalgaz,bilinmiyor,yok,var,yok,yok,yok,var,var,yok,var,yok,yok,yok,yok,yok,yok,yok,yok,yok,yok,yok,yok,yok,yok,yok,yok,yok,yok,yok,yok,var,kademe_4,normal,normal,kotu,300_m2_ve_ustu,5_oda,orta_4_7_kat,3_banyo_ve_ustu,yok,yok,yok,dusuk,yok,yok,yok,7_Bucuk_10_Milyon_TL_Arasi
Aksaray,Merkez,Satilik,1_5_arasi,1,Kombi_Dogalgaz,bilinmiyor,yok,var,var,var,yok,yok,var,var,yok,yok,var,var,yok,var,yok,yok,yok,yok,yok,yok,yok,yok,var,yok,yok,var,yok,yok,yok,yok,kademe_4,bilinmiyor,bilinmiyor,bilinmiyor,125_150_m2,4_oda,orta_4_7_kat,2_banyo,dusuk,dusuk,yok,dusuk,orta,yuksek,yok,4_5_Milyon_TL_Arasi
Amasya,Merzifon,Satilik,1_5_arasi,Bahce,Kombi,bilinmiyor,yok,yok,yok,yok,var,var,yok,yok,yok,yok,var,yok,yok,yok,yok,yok,yok,yok,var,yok,yok,yok,yok,yok,yok,yok,yok,yok,yok,yok,kademe_4,normal,bilinmiyor,bilinmiyor,75_100_m2,2_oda,orta_4_7_kat,1_banyo,yok,dusuk,yok,dusuk,yok,yuksek,yok,2_3_Milyon_TL_Arasi
Kirsehir,Merkez,Satilik,16_20_arasi,En_Ust_Kat,Kombi_Dogalgaz,bilinmiyor,yok,yok,yok,yok,yok,yok,var,var,yok,yok,yok,yok,yok,yok,yok,yok,yok,yok,yok,yok,yok,yok,yok,yok,yok,yok,var,yok,yok,yok,kademe_4,kotu,kotu,kotu,200_300_m2,6_oda,orta_4_7_kat,1_banyo,yok,yok,yok,dusuk,yok,yok,yok,3_4_Milyon_TL_Arasi
Aksaray,Merkez,Satilik,0,bilinmiyor,Yerden_Isitma,bilinmiyor,yok,var,yok,yok,yok,yok,yok,yok,yok,yok,yok,yok,yok,yok,yok,yok,yok,yok,yok,yok,yok,yok,yok,yok,yok,yok,yok,yok,yok,yok,kademe_4,bilinmiyor,bilinmiyor,bilinmiyor,200_300_m2,6_oda,alcak_1_3_kat,3_banyo_ve_ustu,yok,yok,yok,yok,yok,yok,yok,10_Milyon_TL_Ustu
Aksaray,Merkez,Satilik,1_5_arasi,Bahce,Kombi,bilinmiyor,yok,var,yok,var,var,yok,yok,yok,yok,yok,yok,yok,yok,yok,yok,yok,yok,yok,yok,yok,yok,yok,yok,yok,yok,yok,yok,yok,yok,yok,kademe_4,iyi,iyi,iyi,200_300_m2,6_oda,alcak_1_3_kat,2_banyo,yok,yok,yok,dusuk,yok,yok,yok,10_Milyon_TL_Ustu
Amasya,Merzifon,Satilik,6_10_arasi,3,Kombi,bilinmiyor,yok,var,yok,var,yok,yok,yok,yok,var,yok,var,yok,yok,yok,yok,yok,yok,yok,yok,yok,yok,yok,var,yok,yok,var,yok,yok,yok,yok,kademe_4,normal,normal,normal,100_125_m2,3_oda,orta_4_7_kat,1_banyo,yok,yok,yok,dusuk,dusuk,yuksek,yok,3_4_Milyon_TL_Arasi
Kastamonu,Merkez,Satilik,6_10_arasi,15,Merkezi,bilinmiyor,yok,var,yok,var,yok,var,yok,var,yok,yok,var,var,yok,var,yok,yok,yok,yok,yok,yok,yok,yok,var,yok,yok,var,yok,yok,yok,yok,kademe_4,bilinmiyor,bilinmiyor,bilinmiyor,125_150_m2,4_oda,cok_yuksek_16_ustu_kat,2_banyo,dusuk,yok,dusuk,dusuk,yuksek,yuksek,yok,4_5_Milyon_TL_Arasi
Kastamonu,Merkez,Satilik,11_15_arasi,Ara_Kat,Kombi_Dogalgaz,bilinmiyor,yok,var,var,var,yok,yok,yok,yok,var,yok,var,yok,yok,yok,yok,yok,yok,yok,yok,yok,yok,yok,yok,yok,yok,var,yok,yok,yok,yok,kademe_4,normal,normal,kotu,75_100_m2,3_oda,orta_4_7_kat,1_banyo,dusuk,yok,yok,dusuk,orta,yuksek,dusuk,3_4_Milyon_TL_Arasi
Amasya,Merzifon,Satilik,11_15_arasi,Ara_Kat,Kombi_Dogalgaz,bilinmiyor,yok,var,var,yok,yok,yok,var,var,var,yok,var,yok,yok,var,yok,yok,yok,yok,yok,yok,yok,yok,yok,yok,yok,yok,yok,yok,yok,yok,kademe_4,normal,bilinmiyor,kotu,100_125_m2,3_oda,orta_4_7_kat,1_banyo,dusuk,yok,yok,dusuk,yok,yuksek,yok,3_4_Milyon_TL_Arasi
Kastamonu,Merkez,Satilik,0,11,Kombi,bilinmiyor,yok,var,var,var,yok,yok,yok,var,yok,yok,var,yok,yok,yok,yok,yok,yok,yok,yok,yok,yok,yok,var,yok,yok,yok,yok,yok,yok,yok,kademe_4,iyi,normal,iyi,100_125_m2,4_oda,yuksek_8_15_kat,1_banyo,dusuk,yok,yok,dusuk,yuksek,orta,yok,3_4_Milyon_TL_Arasi
Amasya,Merzifon,Satilik,1_5_arasi,En_Ust_Kat,Kombi_Dogalgaz,bilinmiyor,yok,yok,var,yok,yok,yok,yok,var,yok,yok,yok,yok,yok,yok,yok,yok,yok,yok,yok,yok,yok,yok,yok,yok,yok,yok,var,yok,yok,yok,kademe_4,iyi,normal,iyi,150_200_m2,6_oda,orta_4_7_kat,2_banyo,yok,yok,yok,yok,orta,yok,yok,4_5_Milyon_TL_Arasi
Elazig,Kovancilar,Satilik,16_20_arasi,5,Kombi,bilinmiyor,yok,var,var,var,yok,yok,yok,yok,yok,yok,yok,yok,yok,yok,yok,yok,yok,yok,yok,yok,yok,yok,yok,yok,yok,yok,yok,yok,yok,yok,kademe_4,normal,iyi,kotu,150_200_m2,4_oda,orta_4_7_kat,1_banyo,yok,yok,yok,dusuk,yok,yok,yok,1_5_2_Milyon_TL_Arasi
Amasya,Merkez,Satilik,16_20_arasi,Yuksek_Giris,Merkezi,bilinmiyor,yok,var,yok,var,yok,yok,yok,var,yok,yok,var,yok,yok,yok,yok,yok,yok,yok,yok,yok,yok,yok,yok,yok,yok,yok,yok,yok,yok,yok,kademe_4,kotu,kotu,normal,100_125_m2,3_oda,orta_4_7_kat,1_banyo,yok,yok,yok,dusuk,dusuk,dusuk,yok,2_3_Milyon_TL_Arasi
Kastamonu,Taskopru,Satilik,6_10_arasi,Yuksek_Giris,Kombi_Dogalgaz,bilinmiyor,yok,var,yok,yok,var,yok,yok,yok,yok,yok,yok,yok,yok,yok,yok,yok,yok,yok,yok,yok,yok,yok,yok,yok,yok,yok,yok,yok,yok,yok,kademe_4,normal,normal,kotu,125_150_m2,4_oda,orta_4_7_kat,1_banyo,yok,yok,yok,dusuk,yok,yok,yok,3_4_Milyon_TL_Arasi
Artvin,Merkez,Satilik,21_25_arasi,Bahce,Soba,bilinmiyor,yok,var,yok,var,yok,yok,yok,yok,yok,yok,yok,yok,yok,yok,yok,yok,yok,yok,yok,yok,yok,yok,yok,yok,yok,yok,yok,yok,yok,yok,kademe_4,kotu,bilinmiyor,kotu,100_125_m2,3_oda,alcak_1_3_kat,1_banyo,yok,yok,yok,dusuk,yok,yok,yok,1_5_2_Milyon_TL_Arasi
Kastamonu,Merkez,Satilik,6_10_arasi,Bahce,Merkezi,bilinmiyor,yok,var,var,var,yok,var,yok,var,yok,yok,var,var,yok,yok,yok,yok,yok,yok,yok,yok,yok,yok,yok,yok,yok,yok,yok,yok,yok,yok,kademe_4,normal,bilinmiyor,bilinmiyor,200_300_m2,5_oda,cok_yuksek_16_ustu_kat,2_banyo,dusuk,dusuk,dusuk,dusuk,orta,yuksek,yok,7_Bucuk_10_Milyon_TL_Arasi
Amasya,Merkez,Satilik,0,2,Kombi,bilinmiyor,yok,yok,var,var,yok,yok,yok,yok,yok,yok,var,yok,yok,yok,yok,yok,yok,yok,yok,yok,yok,yok,yok,yok,yok,yok,yok,yok,yok,yok,kademe_4,iyi,normal,normal,50_75_m2,2_oda,orta_4_7_kat,1_banyo,dusuk,yok,yok,dusuk,yok,orta,yok,1_5_2_Milyon_TL_Arasi
Aksaray,Merkez,Satilik,1_5_arasi,2,Kombi_Dogalgaz,bilinmiyor,yok,var,yok,yok,var,yok,yok,yok,var,yok,yok,yok,yok,yok,yok,yok,yok,yok,yok,yok,yok,yok,yok,yok,yok,yok,yok,yok,yok,yok,kademe_4,normal,normal,bilinmiyor,50_75_m2,2_oda,yuksek_8_15_kat,1_banyo,yok,yok,yok,yok,dusuk,yok,yok,2_3_Milyon_TL_Arasi
Aksaray,Merkez,Satilik,1_5_arasi,2,Yerden_Isitma,bilinmiyor,yok,var,var,var,var,yok,yok,yok,yok,yok,yok,yok,yok,yok,yok,yok,yok,yok,yok,yok,yok,yok,yok,yok,yok,yok,yok,yok,yok,yok,kademe_4,kotu,normal,iyi,0_50_m2,2_oda,alcak_1_3_kat,1_banyo,yok,yok,yok,yok,yok,yok,yok,1_5_Milyon_TL_Alti
Elazig,Merkez,Satilik,6_10_arasi,1,bilinmiyor,bilinmiyor,yok,yok,var,yok,yok,yok,yok,yok,yok,yok,yok,yok,yok,yok,yok,yok,yok,yok,yok,yok,yok,yok,yok,yok,yok,yok,yok,yok,yok,yok,kademe_4,bilinmiyor,bilinmiyor,bilinmiyor,75_100_m2,3_oda,alcak_1_3_kat,1_banyo,yok,yok,yok,dusuk,yok,yok,yok,3_4_Milyon_TL_Arasi
Amasya,Merkez,Satilik,11_15_arasi,Bodrum,Kombi_Dogalgaz,bilinmiyor,yok,yok,yok,yok,yok,yok,yok,yok,yok,yok,yok,yok,yok,yok,yok,yok,yok,yok,yok,yok,yok,yok,yok,yok,yok,yok,yok,yok,yok,yok,kademe_4,normal,kotu,bilinmiyor,75_100_m2,3_oda,orta_4_7_kat,1_banyo,yok,yok,yok,dusuk,yok,yok,yok,1_5_Milyon_TL_Alti
Afyonkarahisar,Merkez,Satilik,1_5_arasi,2,Merkezi,bilinmiyor,yok,var,var,var,yok,var,var,var,yok,yok,var,var,yok,yok,yok,yok,yok,yok,yok,yok,yok,yok,yok,yok,yok,yok,yok,yok,yok,yok,kademe_4,iyi,bilinmiyor,bilinmiyor,150_200_m2,4_oda,yuksek_8_15_kat,2_banyo,dusuk,dusuk,yok,dusuk,yok,dusuk,yok,4_5_Milyon_TL_Arasi
Aksaray,Merkez,Satilik,6_10_arasi,Bahce,Kombi,bilinmiyor,yok,var,yok,var,yok,yok,var,var,var,yok,var,var,yok,yok,yok,yok,yok,yok,yok,yok,yok,yok,var,yok,yok,var,yok,yok,yok,var,kademe_4,iyi,normal,iyi,300_m2_ve_ustu,7_oda_ve_ustu,orta_4_7_kat,3_banyo_ve_ustu,yok,yok,dusuk,dusuk,orta,yuksek,yok,7_Bucuk_10_Milyon_TL_Arasi
Aksaray,Merkez,Satilik,1_5_arasi,2,Yerden_Isitma,bilinmiyor,yok,var,yok,var,yok,yok,yok,var,yok,yok,var,yok,yok,yok,yok,yok,yok,yok,yok,yok,yok,yok,yok,yok,yok,yok,yok,yok,yok,yok,kademe_4,iyi,normal,bilinmiyor,0_50_m2,2_oda,orta_4_7_kat,1_banyo,yok,yok,dusuk,orta,yuksek,yuksek,yok,1_5_2_Milyon_TL_Arasi
Kastamonu,Inebolu,Satilik,16_20_arasi,bilinmiyor,Soba,bilinmiyor,yok,yok,yok,var,yok,yok,yok,yok,var,yok,yok,yok,yok,yok,yok,yok,yok,yok,yok,yok,yok,var,yok,yok,yok,var,yok,yok,yok,yok,kademe_4,kotu,bilinmiyor,bilinmiyor,100_125_m2,4_oda,orta_4_7_kat,2_banyo,yok,yok,yok,dusuk,dusuk,dusuk,yok,5_7_Bucuk_Milyon_TL_Arasi
Kirsehir,Merkez,Satilik,6_10_arasi,Yuksek_Giris,Kombi_Dogalgaz,bilinmiyor,yok,yok,yok,yok,yok,var,yok,var,yok,yok,yok,yok,yok,yok,yok,yok,yok,yok,yok,yok,yok,yok,yok,yok,yok,yok,yok,yok,yok,yok,kademe_4,kotu,kotu,kotu,125_150_m2,4_oda,orta_4_7_kat,1_banyo,yok,yok,yok,dusuk,dusuk,yok,yok,2_3_Milyon_TL_Arasi
Amasya,Merzifon,Satilik,0,Ara_Kat,Kombi_Dogalgaz,bilinmiyor,yok,var,var,yok,yok,var,var,var,var,yok,var,yok,yok,var,yok,yok,yok,yok,yok,yok,yok,yok,yok,yok,yok,yok,yok,yok,yok,yok,kademe_4,normal,normal,kotu,125_150_m2,4_oda,orta_4_7_kat,1_banyo,dusuk,yok,yok,dusuk,yok,yuksek,yok,4_5_Milyon_TL_Arasi
Kastamonu,Abana,Satilik,31_ve_uzeri,2,Soba,bilinmiyor,yok,yok,yok,var,var,var,var,var,var,yok,var,yok,yok,var,yok,yok,yok,yok,yok,yok,yok,yok,var,yok,yok,var,yok,yok,yok,yok,kademe_4,bilinmiyor,kotu,bilinmiyor,200_300_m2,4_oda,alcak_1_3_kat,1_banyo,dusuk,yok,yok,orta,yok,yuksek,yok,4_5_Milyon_TL_Arasi
Elazig,Merkez,Satilik,6_10_arasi,Yuksek_Giris,Kombi_Dogalgaz,bilinmiyor,yok,var,var,yok,yok,yok,yok,yok,yok,yok,yok,yok,yok,yok,yok,yok,yok,yok,yok,yok,yok,yok,yok,yok,yok,yok,yok,yok,yok,yok,kademe_4,kotu,normal,kotu,100_125_m2,3_oda,orta_4_7_kat,2_banyo,yok,yok,yok,yok,yok,orta,yok,2_3_Milyon_TL_Arasi
Artvin,Arhavi,Satilik,0,4,Merkezi,bilinmiyor,yok,var,var,var,yok,yok,yok,yok,yok,yok,var,var,yok,var,yok,yok,yok,yok,yok,yok,yok,yok,var,yok,yok,var,yok,yok,yok,yok,kademe_4,normal,normal,bilinmiyor,150_200_m2,4_oda,orta_4_7_kat,2_banyo,yok,yok,dusuk,orta,orta,dusuk,yok,5_7_Bucuk_Milyon_TL_Arasi
Afyonkarahisar,Merkez,Satilik,6_10_arasi,3,Kombi,bilinmiyor,yok,var,yok,var,yok,yok,var,var,yok,yok,var,yok,yok,var,yok,yok,yok,yok,yok,yok,yok,yok,yok,yok,yok,var,yok,yok,yok,yok,kademe_4,kotu,normal,kotu,50_75_m2,1_oda,orta_4_7_kat,1_banyo,dusuk,yok,yok,dusuk,orta,yuksek,yok,2_3_Milyon_TL_Arasi
Aksaray,Merkez,Satilik,11_15_arasi,2,Kombi_Dogalgaz,bilinmiyor,yok,var,var,var,yok,var,yok,var,yok,yok,var,yok,yok,yok,yok,yok,yok,yok,yok,yok,yok,yok,var,yok,yok,var,yok,yok,yok,yok,kademe_4,kotu,kotu,kotu,150_200_m2,4_oda,orta_4_7_kat,1_banyo,yok,yok,yok,yok,yok,orta,yok,3_4_Milyon_TL_Arasi
Amasya,Merzifon,Satilik,31_ve_uzeri,bilinmiyor,Soba,bilinmiyor,yok,var,yok,yok,yok,var,var,yok,var,yok,yok,yok,yok,yok,yok,yok,yok,yok,yok,yok,yok,yok,yok,yok,yok,yok,yok,yok,yok,yok,kademe_4,normal,bilinmiyor,kotu,50_75_m2,3_oda,cok_yuksek_16_ustu_kat,1_banyo,yok,yok,yok,dusuk,yok,yok,yok,1_5_Milyon_TL_Alti
Kastamonu,Merkez,Satilik,0,Yuksek_Giris,Kombi_Dogalgaz,bilinmiyor,yok,var,var,var,yok,yok,yok,yok,yok,yok,var,yok,yok,yok,yok,yok,yok,var,yok,yok,yok,yok,yok,yok,yok,yok,yok,yok,yok,yok,kademe_4,normal,normal,normal,100_125_m2,3_oda,orta_4_7_kat,1_banyo,orta,yok,yok,yok,orta,yuksek,yok,3_4_Milyon_TL_Arasi
Amasya,Suluova,Satilik,11_15_arasi,3,Kombi,bilinmiyor,yok,var,yok,var,yok,yok,yok,yok,yok,yok,yok,yok,yok,yok,yok,yok,yok,yok,yok,yok,yok,yok,yok,yok,yok,yok,yok,yok,yok,yok,kademe_4,kotu,normal,iyi,125_150_m2,4_oda,orta_4_7_kat,1_banyo,yok,yok,yok,dusuk,yok,yok,yok,2_3_Milyon_TL_Arasi
Afyonkarahisar,Merkez,Satilik,6_10_arasi,1,bilinmiyor,bilinmiyor,yok,var,var,yok,yok,yok,yok,yok,yok,yok,yok,yok,yok,yok,yok,yok,yok,yok,yok,yok,yok,yok,yok,yok,yok,yok,yok,yok,yok,yok,kademe_4,bilinmiyor,normal,bilinmiyor,100_125_m2,3_oda,alcak_1_3_kat,1_banyo,yok,yok,yok,dusuk,yok,yok,yok,5_7_Bucuk_Milyon_TL_Arasi
Elazig,Merkez,Satilik,1_5_arasi,1,bilinmiyor,bilinmiyor,yok,yok,var,yok,yok,yok,yok,yok,yok,yok,yok,yok,yok,yok,yok,yok,yok,yok,yok,yok,yok,yok,yok,yok,yok,yok,yok,yok,yok,yok,kademe_4,bilinmiyor,bilinmiyor,bilinmiyor,100_125_m2,4_oda,alcak_1_3_kat,2_banyo,yok,yok,yok,dusuk,yok,yok,yok,2_3_Milyon_TL_Arasi
Afyonkarahisar,Ihsaniye,Satilik,26_30_arasi,3,Jeotermal,bilinmiyor,yok,yok,var,yok,var,yok,var,var,yok,yok,yok,yok,yok,yok,yok,yok,yok,yok,yok,var,yok,yok,yok,yok,yok,yok,yok,yok,yok,yok,kademe_4,kotu,kotu,kotu,75_100_m2,2_oda,orta_4_7_kat,1_banyo,yok,yok,yok,dusuk,dusuk,yok,yok,1_5_Milyon_TL_Alti
Aksaray,Merkez,Satilik,6_10_arasi,4,Kombi,bilinmiyor,yok,var,var,yok,yok,yok,yok,yok,yok,yok,yok,yok,yok,yok,yok,yok,yok,yok,yok,yok,yok,yok,yok,yok,yok,yok,yok,yok,yok,yok,kademe_4,kotu,normal,iyi,150_200_m2,4_oda,orta_4_7_kat,1_banyo,yok,yok,yok,yok,yok,yok,yok,4_5_Milyon_TL_Arasi
Elazig,Merkez,Satilik,1_5_arasi,Kot_1,Kombi_Dogalgaz,bilinmiyor,yok,var,yok,var,yok,var,yok,var,var,yok,yok,yok,yok,yok,yok,yok,yok,yok,yok,yok,yok,yok,yok,yok,yok,yok,yok,yok,yok,yok,kademe_4,iyi,iyi,bilinmiyor,200_300_m2,6_oda,yuksek_8_15_kat,2_banyo,yok,yok,yok,dusuk,yok,yok,yok,5_7_Bucuk_Milyon_TL_Arasi
Afyonkarahisar,Merkez,Satilik,0,Yuksek_Giris,Kombi,bilinmiyor,yok,var,var,yok,yok,var,var,var,var,yok,var,var,yok,var,yok,yok,yok,yok,yok,yok,yok,yok,var,yok,yok,var,yok,yok,yok,yok,kademe_4,bilinmiyor,iyi,bilinmiyor,100_125_m2,4_oda,orta_4_7_kat,2_banyo,yok,dusuk,yok,yok,yok,yuksek,yok,4_5_Milyon_TL_Arasi
Amasya,Suluova,Satilik,1_5_arasi,Ara_Kat,Kombi_Dogalgaz,bilinmiyor,yok,var,var,var,yok,yok,yok,var,var,yok,var,var,yok,yok,yok,yok,yok,yok,yok,yok,yok,yok,yok,yok,yok,var,yok,yok,yok,yok,kademe_4,iyi,normal,normal,125_150_m2,4_oda,orta_4_7_kat,1_banyo,yok,yok,yok,dusuk,dusuk,orta,yok,4_5_Milyon_TL_Arasi
Kastamonu,Merkez,Satilik,31_ve_uzeri,Bahce,Soba,bilinmiyor,yok,yok,yok,var,yok,yok,var,var,yok,yok,yok,yok,yok,yok,yok,yok,yok,yok,yok,yok,yok,yok,yok,yok,yok,yok,var,yok,yok,yok,kademe_4,kotu,kotu,bilinmiyor,200_300_m2,4_oda,bilinmiyor,2_banyo,yok,yok,yok,dusuk,dusuk,yok,yok,2_3_Milyon_TL_Arasi
Aksaray,Merkez,Satilik,0,3,Kombi,bilinmiyor,yok,var,yok,var,yok,var,yok,var,yok,yok,var,var,yok,var,yok,yok,yok,yok,yok,yok,yok,yok,yok,yok,yok,var,yok,yok,yok,yok,kademe_4,iyi,normal,kotu,125_150_m2,4_oda,orta_4_7_kat,2_banyo,yok,dusuk,yok,dusuk,yuksek,yuksek,yok,4_5_Milyon_TL_Arasi
Aksaray,Merkez,Satilik,0,2,Kombi,bilinmiyor,yok,var,var,var,yok,yok,yok,yok,yok,yok,yok,yok,yok,yok,yok,yok,yok,yok,yok,yok,yok,yok,yok,yok,yok,yok,yok,yok,yok,yok,kademe_4,iyi,normal,bilinmiyor,75_100_m2,2_oda,orta_4_7_kat,1_banyo,yok,yok,yok,yok,yok,yok,yok,3_4_Milyon_TL_Arasi
Kastamonu,Merkez,Satilik,1_5_arasi,bilinmiyor,Soba,bilinmiyor,yok,yok,yok,yok,yok,yok,yok,yok,yok,yok,yok,yok,yok,yok,yok,yok,yok,yok,yok,yok,yok,yok,yok,yok,yok,yok,yok,yok,yok,yok,kademe_4,bilinmiyor,bilinmiyor,bilinmiyor,100_125_m2,6_oda,orta_4_7_kat,2_banyo,yok,yok,yok,dusuk,yok,yok,yok,1_5_Milyon_TL_Alti
Kastamonu,Merkez,Satilik,11_15_arasi,1,Merkezi,bilinmiyor,yok,var,var,var,yok,yok,yok,yok,yok,yok,var,var,yok,var,yok,yok,yok,yok,yok,yok,yok,yok,yok,yok,yok,yok,yok,yok,yok,yok,kademe_4,kotu,kotu,bilinmiyor,200_300_m2,5_oda,orta_4_7_kat,2_banyo,yok,yok,yok,dusuk,orta,orta,yok,7_Bucuk_10_Milyon_TL_Arasi
Amasya,Merkez,Satilik,11_15_arasi,Yuksek_Giris,Kombi,bilinmiyor,yok,var,yok,yok,yok,yok,yok,var,yok,yok,yok,yok,yok,yok,yok,yok,yok,yok,yok,yok,yok,yok,yok,yok,yok,var,yok,yok,yok,yok,kademe_4,iyi,bilinmiyor,normal,125_150_m2,4_oda,orta_4_7_kat,1_banyo,yok,yok,yok,dusuk,orta,orta,yok,3_4_Milyon_TL_Arasi
Aksaray,Merkez,Satilik,0,2,Kombi,bilinmiyor,yok,var,yok,var,yok,var,var,var,var,yok,var,var,yok,yok,yok,yok,yok,yok,yok,yok,yok,yok,var,yok,yok,var,yok,yok,yok,yok,kademe_4,bilinmiyor,normal,bilinmiyor,150_200_m2,5_oda,orta_4_7_kat,2_banyo,yok,dusuk,yok,dusuk,orta,yuksek,yok,7_Bucuk_10_Milyon_TL_Arasi
Aksaray,Merkez,Satilik,0,Bahce,Yerden_Isitma,bilinmiyor,yok,yok,yok,var,yok,yok,yok,yok,yok,yok,yok,yok,yok,yok,yok,yok,yok,yok,yok,yok,yok,yok,yok,yok,yok,yok,yok,yok,yok,yok,kademe_4,iyi,bilinmiyor,bilinmiyor,300_m2_ve_ustu,6_oda,alcak_1_3_kat,2_banyo,yok,yok,yok,dusuk,yok,yok,yok,10_Milyon_TL_Ustu
Amasya,Merkez,Satilik,0,1,Kombi_Dogalgaz,bilinmiyor,yok,var,var,var,yok,yok,yok,var,yok,yok,var,var,yok,var,yok,yok,yok,yok,yok,yok,yok,yok,var,yok,yok,var,yok,yok,yok,yok,kademe_4,iyi,normal,normal,125_150_m2,4_oda,orta_4_7_kat,2_banyo,dusuk,yok,yok,dusuk,yok,orta,yok,5_7_Bucuk_Milyon_TL_Arasi
Amasya,Merkez,Satilik,11_15_arasi,bilinmiyor,Kombi_Dogalgaz,bilinmiyor,yok,yok,yok,yok,yok,var,var,var,yok,yok,yok,yok,yok,yok,yok,yok,yok,yok,yok,yok,yok,yok,yok,yok,yok,yok,yok,yok,yok,yok,kademe_4,normal,kotu,bilinmiyor,300_m2_ve_ustu,6_oda,orta_4_7_kat,2_banyo,yok,yok,yok,dusuk,yok,yok,yok,10_Milyon_TL_Ustu
Kirsehir,Merkez,Satilik,0,2,Kombi_Dogalgaz,bilinmiyor,yok,var,var,yok,yok,var,yok,yok,yok,yok,var,yok,yok,yok,yok,yok,yok,yok,yok,yok,yok,yok,yok,yok,yok,yok,yok,yok,yok,yok,kademe_4,iyi,normal,normal,50_75_m2,2_oda,orta_4_7_kat,1_banyo,yok,yok,yok,dusuk,yok,orta,yok,1_5_2_Milyon_TL_Arasi
Afyonkarahisar,Merkez,Satilik,0,Ara_Kat,Jeotermal,bilinmiyor,yok,yok,var,var,yok,yok,var,var,yok,yok,yok,yok,yok,yok,yok,yok,yok,yok,yok,yok,yok,yok,yok,yok,yok,yok,yok,yok,yok,yok,kademe_4,normal,normal,iyi,75_100_m2,3_oda,orta_4_7_kat,1_banyo,yok,yok,yok,dusuk,yok,yok,yok,5_7_Bucuk_Milyon_TL_Arasi
Afyonkarahisar,Merkez,Satilik,31_ve_uzeri,Bahce,Kombi,bilinmiyor,yok,yok,yok,yok,yok,yok,yok,var,yok,yok,yok,yok,yok,yok,yok,yok,yok,yok,yok,yok,yok,yok,yok,yok,yok,yok,yok,yok,yok,var,kademe_4,kotu,normal,bilinmiyor,150_200_m2,5_oda,bilinmiyor,2_banyo,yok,yok,yok,yok,yok,dusuk,yok,2_3_Milyon_TL_Arasi
Elazig,Merkez,Satilik,1_5_arasi,11,Kombi,bilinmiyor,yok,yok,yok,yok,yok,yok,yok,yok,yok,yok,yok,yok,yok,yok,yok,yok,yok,yok,yok,yok,yok,yok,yok,yok,yok,yok,yok,yok,yok,yok,kademe_4,bilinmiyor,bilinmiyor,bilinmiyor,150_200_m2,5_oda,yuksek_8_15_kat,1_banyo,yok,yok,yok,dusuk,yok,yok,yok,3_4_Milyon_TL_Arasi
Aksaray,Merkez,Satilik,11_15_arasi,2,Kombi_Dogalgaz,bilinmiyor,yok,var,yok,var,yok,var,yok,var,yok,yok,yok,yok,yok,yok,yok,yok,yok,var,yok,yok,yok,yok,yok,yok,yok,yok,yok,yok,yok,yok,kademe_4,normal,iyi,bilinmiyor,150_200_m2,3_oda,orta_4_7_kat,1_banyo,yok,yok,yok,dusuk,dusuk,orta,yok,4_5_Milyon_TL_Arasi
Aksaray,Merkez,Satilik,26_30_arasi,5,Kombi,bilinmiyor,yok,var,var,yok,yok,yok,yok,yok,yok,yok,yok,yok,yok,yok,yok,yok,yok,yok,yok,yok,yok,yok,yok,yok,yok,yok,yok,yok,yok,yok,kademe_4,normal,bilinmiyor,normal,150_200_m2,4_oda,orta_4_7_kat,1_banyo,yok,yok,yok,dusuk,yok,yok,yok,3_4_Milyon_TL_Arasi
Aksaray,Merkez,Satilik,0,1,Kombi,bilinmiyor,yok,var,yok,var,yok,yok,yok,yok,var,yok,var,yok,yok,var,yok,yok,yok,yok,yok,yok,yok,yok,yok,yok,yok,yok,yok,yok,yok,yok,kademe_4,iyi,normal,iyi,0_50_m2,2_oda,alcak_1_3_kat,1_banyo,yok,yok,yok,dusuk,orta,yuksek,yok,1_5_Milyon_TL_Alti
Aksaray,Merkez,Satilik,16_20_arasi,2,Kombi,bilinmiyor,yok,var,var,var,yok,yok,yok,yok,yok,yok,yok,yok,yok,yok,yok,yok,yok,yok,yok,yok,yok,yok,yok,yok,yok,yok,yok,yok,yok,yok,kademe_4,normal,normal,normal,125_150_m2,4_oda,orta_4_7_kat,1_banyo,yok,yok,yok,dusuk,yok,yok,yok,2_3_Milyon_TL_Arasi
Amasya,Merzifon,Satilik,0,2,Kombi,bilinmiyor,yok,var,yok,var,yok,yok,var,var,yok,yok,yok,yok,yok,yok,yok,yok,yok,yok,yok,yok,yok,yok,yok,yok,yok,yok,yok,yok,yok,yok,kademe_4,kotu,kotu,bilinmiyor,100_125_m2,3_oda,orta_4_7_kat,1_banyo,yok,yok,yok,dusuk,yok,yok,yok,2_3_Milyon_TL_Arasi
Amasya,Merzifon,Satilik,0,2,Yerden_Isitma,bilinmiyor,yok,yok,var,yok,yok,var,var,var,var,yok,yok,yok,yok,yok,yok,yok,yok,yok,yok,yok,yok,yok,yok,yok,yok,yok,yok,yok,yok,yok,kademe_4,normal,normal,iyi,50_75_m2,2_oda,orta_4_7_kat,1_banyo,yok,yok,yok,dusuk,yok,yok,yok,2_3_Milyon_TL_Arasi
Sivas,Merkez,Satilik,0,Yuksek_Giris,Merkezi,bilinmiyor,yok,var,yok,var,yok,yok,var,var,yok,yok,var,yok,yok,yok,yok,yok,yok,yok,yok,yok,yok,yok,var,yok,yok,var,yok,yok,yok,yok,kademe_4,bilinmiyor,bilinmiyor,bilinmiyor,150_200_m2,4_oda,yuksek_8_15_kat,2_banyo,dusuk,dusuk,yok,dusuk,dusuk,dusuk,yok,4_5_Milyon_TL_Arasi
Elazig,Merkez,Satilik,26_30_arasi,En_Ust_Kat,Kombi_Dogalgaz,bilinmiyor,yok,yok,var,yok,yok,yok,var,var,yok,yok,yok,yok,yok,yok,yok,yok,yok,yok,yok,yok,yok,yok,yok,yok,yok,yok,yok,yok,yok,yok,kademe_4,kotu,kotu,bilinmiyor,125_150_m2,4_oda,orta_4_7_kat,1_banyo,yok,yok,yok,dusuk,yuksek,yok,yok,1_5_2_Milyon_TL_Arasi
Amasya,Merzifon,Satilik,0,1,Yerden_Isitma,bilinmiyor,yok,var,var,yok,yok,yok,var,var,yok,yok,var,yok,yok,var,yok,yok,yok,yok,yok,yok,yok,yok,yok,yok,yok,yok,yok,yok,yok,yok,kademe_4,iyi,normal,bilinmiyor,100_125_m2,3_oda,orta_4_7_kat,2_banyo,dusuk,yok,yok,dusuk,dusuk,orta,yok,2_3_Milyon_TL_Arasi
Kastamonu,Merkez,Satilik,0,Yuksek_Giris,Merkezi,bilinmiyor,yok,var,yok,var,yok,var,yok,yok,var,yok,var,yok,yok,var,yok,yok,yok,yok,yok,yok,yok,yok,var,yok,yok,yok,yok,yok,yok,yok,kademe_4,bilinmiyor,bilinmiyor,bilinmiyor,75_100_m2,3_oda,orta_4_7_kat,1_banyo,dusuk,yok,dusuk,dusuk,dusuk,orta,yok,2_3_Milyon_TL_Arasi
Afyonkarahisar,Merkez,Satilik,21_25_arasi,1,Kombi,bilinmiyor,yok,var,yok,yok,yok,var,yok,var,yok,yok,var,yok,yok,yok,yok,yok,yok,yok,yok,yok,yok,yok,yok,yok,yok,var,yok,yok,yok,yok,kademe_4,iyi,bilinmiyor,bilinmiyor,100_125_m2,3_oda,orta_4_7_kat,1_banyo,yok,yok,yok,dusuk,orta,orta,yok,3_4_Milyon_TL_Arasi
Aksaray,Guzelyurt,Satilik,1_5_arasi,bilinmiyor,Kombi_Dogalgaz,bilinmiyor,yok,var,yok,var,var,var,var,var,var,yok,yok,yok,yok,var,yok,yok,yok,yok,yok,yok,yok,yok,var,yok,yok,yok,var,yok,yok,yok,kademe_4,normal,normal,bilinmiyor,200_300_m2,5_oda,alcak_1_3_kat,3_banyo_ve_ustu,yok,dusuk,yok,dusuk,orta,orta,yok,5_7_Bucuk_Milyon_TL_Arasi
Afyonkarahisar,Merkez,Satilik,31_ve_uzeri,1,Kombi_Dogalgaz,bilinmiyor,yok,var,var,yok,yok,yok,var,var,yok,yok,yok,yok,yok,yok,yok,yok,yok,yok,yok,yok,yok,yok,yok,yok,yok,yok,yok,yok,yok,yok,kademe_4,normal,bilinmiyor,kotu,125_150_m2,3_oda,orta_4_7_kat,1_banyo,yok,yok,yok,dusuk,yok,yok,yok,2_3_Milyon_TL_Arasi
Amasya,Merkez,Satilik,21_25_arasi,Yuksek_Giris,Kombi_Dogalgaz,bilinmiyor,yok,yok,yok,yok,yok,yok,yok,yok,yok,yok,yok,yok,yok,yok,yok,yok,yok,yok,yok,yok,yok,yok,yok,yok,yok,yok,yok,yok,yok,yok,kademe_4,bilinmiyor,normal,iyi,100_125_m2,3_oda,orta_4_7_kat,1_banyo,yok,yok,yok,dusuk,yok,yok,yok,2_3_Milyon_TL_Arasi
Aksaray,Merkez,Satilik,0,1,Kombi,bilinmiyor,yok,var,yok,yok,yok,yok,var,var,yok,yok,var,var,yok,var,var,yok,yok,yok,yok,yok,yok,yok,yok,yok,yok,yok,yok,yok,yok,yok,kademe_4,bilinmiyor,iyi,bilinmiyor,200_300_m2,5_oda,orta_4_7_kat,2_banyo,dusuk,orta,dusuk,dusuk,yuksek,yuksek,yok,5_7_Bucuk_Milyon_TL_Arasi
Amasya,Merzifon,Satilik,0,3,Kombi_Dogalgaz,bilinmiyor,yok,var,yok,yok,yok,yok,var,var,var,yok,var,var,yok,var,yok,yok,yok,yok,yok,yok,yok,yok,yok,yok,yok,var,yok,yok,yok,yok,kademe_4,iyi,normal,iyi,100_125_m2,3_oda,orta_4_7_kat,2_banyo,yok,yok,yok,dusuk,yok,yuksek,yok,3_4_Milyon_TL_Arasi
Afyonkarahisar,Merkez,Satilik,1_5_arasi,Bahce,Soba,bilinmiyor,yok,var,yok,yok,yok,yok,yok,yok,yok,yok,yok,yok,yok,yok,yok,yok,yok,yok,yok,yok,yok,yok,yok,yok,yok,yok,yok,yok,yok,yok,kademe_4,bilinmiyor,bilinmiyor,bilinmiyor,300_m2_ve_ustu,3_oda,bilinmiyor,1_banyo,yok,yok,yok,dusuk,yok,yok,yok,10_Milyon_TL_Ustu
Amasya,Merkez,Satilik,6_10_arasi,1,Kombi,bilinmiyor,yok,var,yok,var,yok,yok,yok,var,var,yok,var,yok,yok,yok,yok,yok,yok,yok,yok,yok,yok,yok,yok,yok,yok,yok,yok,yok,yok,yok,kademe_4,iyi,normal,normal,150_200_m2,4_oda,orta_4_7_kat,2_banyo,yok,yok,dusuk,dusuk,orta,orta,yok,5_7_Bucuk_Milyon_TL_Arasi
Elazig,Merkez,Satilik,0,3,Merkezi,bilinmiyor,yok,var,yok,yok,yok,yok,yok,yok,yok,yok,yok,yok,yok,yok,yok,yok,yok,yok,yok,yok,yok,yok,yok,yok,yok,yok,yok,yok,yok,yok,kademe_4,iyi,iyi,iyi,125_150_m2,4_oda,yuksek_8_15_kat,2_banyo,yok,yok,yok,dusuk,yok,yok,yok,5_7_Bucuk_Milyon_TL_Arasi
Amasya,Merzifon,Satilik,1_5_arasi,5,Kombi_Dogalgaz,bilinmiyor,yok,var,yok,var,yok,var,yok,var,yok,yok,yok,yok,yok,yok,yok,yok,yok,yok,yok,yok,yok,yok,yok,yok,yok,yok,yok,yok,yok,yok,kademe_4,iyi,iyi,bilinmiyor,200_300_m2,5_oda,orta_4_7_kat,2_banyo,yok,yok,yok,dusuk,dusuk,yok,yok,10_Milyon_TL_Ustu
Amasya,Merzifon,Satilik,11_15_arasi,5,Kombi_Dogalgaz,bilinmiyor,yok,yok,yok,yok,yok,yok,var,var,var,yok,yok,yok,yok,yok,yok,yok,yok,yok,yok,yok,yok,yok,yok,yok,yok,yok,yok,yok,yok,yok,kademe_4,normal,normal,bilinmiyor,150_200_m2,4_oda,orta_4_7_kat,2_banyo,yok,yok,yok,dusuk,yok,yok,yok,3_4_Milyon_TL_Arasi
Aksaray,Merkez,Satilik,0,3,Kombi,bilinmiyor,yok,var,var,yok,yok,yok,yok,yok,yok,yok,yok,yok,yok,yok,yok,yok,yok,yok,yok,yok,yok,yok,yok,yok,yok,yok,yok,yok,yok,yok,kademe_4,normal,kotu,bilinmiyor,50_75_m2,2_oda,yuksek_8_15_kat,1_banyo,yok,yok,yok,dusuk,yok,yok,yok,2_3_Milyon_TL_Arasi
Aksaray,Merkez,Satilik,0,5,Kombi_Dogalgaz,bilinmiyor,yok,yok,yok,var,yok,var,var,var,yok,yok,yok,yok,yok,yok,yok,yok,yok,yok,yok,yok,yok,yok,yok,yok,yok,yok,yok,yok,yok,yok,kademe_4,normal,bilinmiyor,bilinmiyor,150_200_m2,4_oda,yuksek_8_15_kat,2_banyo,yok,yok,yok,dusuk,yok,yok,yok,4_5_Milyon_TL_Arasi
Amasya,Suluova,Satilik,0,2,Kombi,bilinmiyor,yok,var,yok,var,yok,var,var,var,var,yok,var,var,yok,var,yok,yok,yok,yok,yok,yok,yok,yok,yok,yok,yok,var,yok,yok,yok,yok,kademe_4,normal,bilinmiyor,kotu,125_150_m2,4_oda,orta_4_7_kat,2_banyo,yok,yok,dusuk,orta,orta,yuksek,yok,3_4_Milyon_TL_Arasi
Aksaray,Merkez,Satilik,1_5_arasi,2,Kombi_Dogalgaz,bilinmiyor,yok,var,yok,yok,var,yok,yok,yok,yok,yok,yok,yok,yok,yok,yok,yok,yok,yok,yok,yok,yok,yok,yok,yok,yok,yok,yok,yok,yok,yok,kademe_4,normal,normal,bilinmiyor,0_50_m2,2_oda,orta_4_7_kat,1_banyo,yok,yok,yok,yok,yok,yok,yok,2_3_Milyon_TL_Arasi
Afyonkarahisar,Merkez,Satilik,6_10_arasi,2,Kombi,bilinmiyor,yok,var,yok,yok,yok,yok,yok,yok,yok,yok,var,yok,yok,yok,yok,yok,yok,yok,yok,yok,yok,yok,yok,yok,yok,var,yok,yok,yok,yok,kademe_4,iyi,normal,bilinmiyor,100_125_m2,4_oda,orta_4_7_kat,1_banyo,yok,yok,yok,orta,dusuk,orta,yok,4_5_Milyon_TL_Arasi
Aksaray,Merkez,Satilik,11_15_arasi,6,Kombi,bilinmiyor,yok,var,var,yok,yok,yok,var,var,yok,yok,yok,yok,yok,yok,yok,yok,yok,yok,yok,yok,yok,yok,yok,yok,yok,yok,yok,yok,yok,yok,kademe_4,iyi,normal,iyi,150_200_m2,4_oda,yuksek_8_15_kat,1_banyo,yok,yok,yok,dusuk,orta,yok,yok,4_5_Milyon_TL_Arasi
Amasya,Merkez,Satilik,26_30_arasi,bilinmiyor,Soba,bilinmiyor,yok,yok,yok,yok,yok,yok,yok,yok,yok,yok,yok,yok,yok,yok,yok,yok,yok,yok,yok,yok,yok,yok,yok,yok,yok,yok,yok,yok,yok,yok,kademe_4,kotu,kotu,bilinmiyor,150_200_m2,7_oda_ve_ustu,alcak_1_3_kat,2_banyo,yok,yok,yok,yok,yok,yok,yok,3_4_Milyon_TL_Arasi
Aksaray,Merkez,Satilik,1_5_arasi,Yuksek_Giris,Kombi,bilinmiyor,yok,yok,yok,var,var,var,yok,yok,yok,yok,var,yok,yok,var,yok,yok,yok,yok,yok,yok,yok,yok,yok,yok,yok,var,yok,yok,yok,yok,kademe_4,iyi,iyi,bilinmiyor,50_75_m2,2_oda,orta_4_7_kat,1_banyo,yok,yok,yok,dusuk,orta,yuksek,yok,1_5_Milyon_TL_Alti
Amasya,Suluova,Satilik,21_25_arasi,bilinmiyor,Kombi_Dogalgaz,bilinmiyor,yok,yok,yok,yok,yok,yok,var,yok,yok,yok,var,yok,yok,yok,yok,yok,yok,yok,yok,yok,yok,yok,yok,yok,yok,yok,yok,yok,yok,yok,kademe_4,normal,bilinmiyor,kotu,125_150_m2,6_oda,alcak_1_3_kat,2_banyo,yok,dusuk,yok,dusuk,dusuk,orta,yok,3_4_Milyon_TL_Arasi
Amasya,Merkez,Satilik,16_20_arasi,4,Kombi_Dogalgaz,bilinmiyor,yok,yok,yok,yok,yok,yok,yok,yok,yok,yok,yok,yok,yok,yok,yok,yok,yok,yok,yok,yok,yok,yok,yok,yok,yok,yok,yok,yok,yok,yok,kademe_4,iyi,bilinmiyor,bilinmiyor,50_75_m2,2_oda,orta_4_7_kat,1_banyo,yok,yok,yok,dusuk,yok,yok,yok,1_5_Milyon_TL_Alti
Sivas,Merkez,Satilik,31_ve_uzeri,3,Kombi,bilinmiyor,yok,var,yok,var,yok,var,yok,var,yok,yok,yok,yok,yok,yok,yok,yok,yok,yok,yok,yok,yok,yok,yok,yok,yok,yok,yok,yok,yok,yok,kademe_4,iyi,normal,bilinmiyor,100_125_m2,3_oda,orta_4_7_kat,1_banyo,yok,yok,yok,yok,yok,yok,yok,1_5_Milyon_TL_Alti
Amasya,Merzifon,Satilik,0,Yuksek_Giris,Kombi,bilinmiyor,yok,var,yok,yok,yok,var,yok,var,yok,yok,yok,yok,yok,yok,yok,yok,yok,yok,yok,yok,yok,yok,yok,yok,yok,yok,yok,yok,yok,yok,kademe_4,kotu,bilinmiyor,bilinmiyor,100_125_m2,3_oda,orta_4_7_kat,1_banyo,yok,yok,yok,dusuk,yok,yok,yok,2_3_Milyon_TL_Arasi
Amasya,Merkez,Satilik,1_5_arasi,Bahce,Kombi,bilinmiyor,yok,var,yok,yok,yok,yok,var,var,yok,yok,var,yok,yok,yok,yok,yok,yok,yok,yok,yok,yok,yok,yok,yok,yok,yok,yok,yok,yok,yok,kademe_4,kotu,kotu,kotu,75_100_m2,3_oda,orta_4_7_kat,1_banyo,yok,yok,yok,dusuk,yok,dusuk,yok,2_3_Milyon_TL_Arasi
Afyonkarahisar,Ihsaniye,Satilik,16_20_arasi,bilinmiyor,Kombi_Dogalgaz,bilinmiyor,yok,var,yok,yok,yok,var,var,yok,yok,yok,yok,yok,yok,yok,yok,yok,yok,yok,yok,yok,yok,yok,yok,yok,yok,yok,yok,yok,yok,yok,kademe_4,kotu,bilinmiyor,kotu,300_m2_ve_ustu,4_oda,alcak_1_3_kat,2_banyo,yok,yok,yok,dusuk,yok,dusuk,yok,2_3_Milyon_TL_Arasi
Elazig,Merkez,Satilik,1_5_arasi,5,Kombi,bilinmiyor,yok,var,var,var,yok,yok,yok,var,var,yok,var,yok,yok,var,yok,yok,yok,yok,yok,yok,yok,yok,yok,yok,yok,var,yok,yok,yok,yok,kademe_4,iyi,normal,normal,125_150_m2,3_oda,orta_4_7_kat,1_banyo,yok,yok,dusuk,dusuk,yuksek,dusuk,yok,3_4_Milyon_TL_Arasi
Kastamonu,Merkez,Satilik,1_5_arasi,3,Merkezi,bilinmiyor,yok,var,var,var,yok,yok,yok,yok,yok,yok,yok,yok,yok,yok,yok,yok,yok,yok,yok,yok,yok,yok,yok,yok,yok,yok,yok,yok,yok,yok,kademe_4,bilinmiyor,bilinmiyor,bilinmiyor,200_300_m2,5_oda,yuksek_8_15_kat,2_banyo,yok,yok,yok,dusuk,yok,yok,yok,7_Bucuk_10_Milyon_TL_Arasi
Amasya,Merzifon,Satilik,11_15_arasi,3,Kombi,bilinmiyor,yok,var,var,yok,yok,yok,yok,var,yok,yok,yok,yok,yok,yok,yok,yok,yok,yok,yok,yok,yok,yok,yok,yok,yok,var,yok,yok,yok,yok,kademe_4,normal,normal,kotu,200_300_m2,4_oda,orta_4_7_kat,2_banyo,yok,yok,yok,dusuk,yok,dusuk,yok,4_5_Milyon_TL_Arasi
Amasya,Suluova,Satilik,6_10_arasi,1,bilinmiyor,bilinmiyor,yok,var,var,yok,yok,yok,yok,yok,yok,yok,yok,yok,yok,yok,yok,yok,yok,yok,yok,yok,yok,yok,yok,yok,yok,yok,yok,yok,yok,yok,kademe_4,bilinmiyor,bilinmiyor,bilinmiyor,100_125_m2,4_oda,alcak_1_3_kat,1_banyo,yok,yok,yok,dusuk,yok,yok,yok,3_4_Milyon_TL_Arasi
Kastamonu,Inebolu,Satilik,0,Giris,Kombi,bilinmiyor,yok,yok,var,var,yok,yok,var,var,var,yok,var,yok,yok,var,yok,yok,yok,yok,yok,yok,yok,yok,yok,yok,yok,var,yok,yok,yok,yok,kademe_4,normal,normal,bilinmiyor,75_100_m2,3_oda,orta_4_7_kat,1_banyo,dusuk,yok,yok,dusuk,orta,yuksek,yok,3_4_Milyon_TL_Arasi
Kastamonu,Merkez,Satilik,21_25_arasi,bilinmiyor,Kombi_Dogalgaz,bilinmiyor,yok,yok,yok,var,yok,yok,var,var,yok,yok,yok,yok,yok,yok,yok,yok,yok,yok,yok,yok,yok,yok,yok,yok,yok,yok,yok,yok,yok,yok,kademe_4,bilinmiyor,bilinmiyor,bilinmiyor,200_300_m2,7_oda_ve_ustu,alcak_1_3_kat,2_banyo,yok,yok,yok,dusuk,yok,yok,yok,3_4_Milyon_TL_Arasi
Elazig,Merkez,Satilik,26_30_arasi,4,Kombi,bilinmiyor,yok,var,yok,yok,yok,var,var,yok,yok,yok,yok,yok,yok,yok,yok,yok,yok,yok,yok,yok,yok,yok,var,yok,yok,yok,yok,yok,yok,yok,kademe_4,normal,normal,kotu,125_150_m2,4_oda,orta_4_7_kat,1_banyo,yok,dusuk,dusuk,dusuk,yuksek,dusuk,yok,1_5_2_Milyon_TL_Arasi
Amasya,Merzifon,Satilik,1_5_arasi,1,Kombi_Dogalgaz,bilinmiyor,yok,yok,yok,yok,var,var,yok,var,var,yok,yok,yok,yok,yok,yok,yok,yok,yok,yok,yok,yok,yok,yok,yok,yok,yok,yok,yok,yok,yok,kademe_4,kotu,normal,normal,100_125_m2,3_oda,orta_4_7_kat,1_banyo,yok,yok,yok,dusuk,yok,yok,yok,2_3_Milyon_TL_Arasi
Amasya,Gumushacikoy,Satilik,21_25_arasi,bilinmiyor,Kombi_Dogalgaz,bilinmiyor,yok,yok,yok,yok,yok,yok,var,yok,yok,yok,yok,yok,yok,yok,yok,yok,yok,yok,yok,yok,yok,yok,yok,yok,yok,yok,yok,yok,yok,yok,kademe_4,kotu,bilinmiyor,bilinmiyor,50_75_m2,6_oda,alcak_1_3_kat,2_banyo,yok,yok,yok,dusuk,yok,yok,yok,1_5_2_Milyon_TL_Arasi
Kastamonu,Merkez,Satilik,6_10_arasi,2,Kombi,bilinmiyor,yok,var,yok,var,yok,yok,yok,var,yok,yok,var,yok,yok,yok,yok,yok,yok,yok,yok,yok,yok,yok,var,yok,yok,var,yok,yok,yok,yok,kademe_4,normal,kotu,kotu,100_125_m2,3_oda,orta_4_7_kat,1_banyo,dusuk,yok,dusuk,orta,yuksek,yuksek,yok,4_5_Milyon_TL_Arasi
Afyonkarahisar,Merkez,Satilik,16_20_arasi,3,Kombi,bilinmiyor,yok,var,yok,var,yok,yok,var,var,var,yok,var,yok,yok,yok,yok,yok,yok,yok,yok,yok,yok,yok,yok,yok,yok,var,yok,yok,yok,yok,kademe_4,kotu,kotu,bilinmiyor,100_125_m2,4_oda,orta_4_7_kat,1_banyo,yok,yok,dusuk,dusuk,orta,orta,yok,3_4_Milyon_TL_Arasi
Amasya,Merzifon,Satilik,0,2,Yerden_Isitma,bilinmiyor,yok,var,var,var,yok,var,yok,yok,var,yok,yok,yok,yok,yok,yok,yok,yok,yok,yok,yok,yok,yok,yok,yok,yok,yok,yok,yok,yok,yok,kademe_4,bilinmiyor,bilinmiyor,bilinmiyor,100_125_m2,3_oda,orta_4_7_kat,2_banyo,yok,yok,yok,dusuk,yok,yok,yok,3_4_Milyon_TL_Arasi
Artvin,Savsat,Satilik,6_10_arasi,Yuksek_Giris,Kat_Kaloriferi,bilinmiyor,yok,yok,yok,var,yok,yok,yok,yok,yok,yok,yok,yok,yok,yok,yok,yok,yok,yok,yok,yok,yok,yok,yok,yok,yok,yok,yok,yok,yok,yok,kademe_4,kotu,normal,bilinmiyor,300_m2_ve_ustu,3_oda,alcak_1_3_kat,bilinmiyor,yok,yok,yok,dusuk,yok,yok,yok,4_5_Milyon_TL_Arasi
Kastamonu,Merkez,Satilik,0,Bahce,isitma_yok,bilinmiyor,yok,var,yok,var,yok,var,var,var,var,yok,yok,yok,yok,yok,yok,yok,yok,yok,yok,yok,yok,yok,var,yok,yok,yok,yok,yok,yok,yok,kademe_4,bilinmiyor,kotu,bilinmiyor,300_m2_ve_ustu,3_oda,bilinmiyor,1_banyo,yok,yok,yok,dusuk,orta,dusuk,yok,3_4_Milyon_TL_Arasi
Afyonkarahisar,Merkez,Satilik,6_10_arasi,Yuksek_Giris,Kombi,bilinmiyor,yok,var,yok,var,yok,var,var,var,yok,yok,var,var,yok,var,yok,yok,yok,yok,yok,yok,yok,yok,yok,yok,yok,var,yok,yok,yok,yok,kademe_4,kotu,bilinmiyor,bilinmiyor,100_125_m2,3_oda,orta_4_7_kat,2_banyo,dusuk,dusuk,dusuk,orta,yuksek,yuksek,yok,4_5_Milyon_TL_Arasi
Artvin,Merkez,Satilik,16_20_arasi,2,Kombi,bilinmiyor,yok,var,yok,yok,yok,yok,yok,yok,yok,yok,yok,yok,yok,yok,yok,yok,yok,yok,yok,yok,yok,yok,yok,yok,yok,yok,yok,yok,yok,yok,kademe_4,kotu,bilinmiyor,bilinmiyor,100_125_m2,4_oda,orta_4_7_kat,1_banyo,yok,yok,yok,dusuk,yok,yok,yok,2_3_Milyon_TL_Arasi
Kastamonu,Seydiler,Satilik,1_5_arasi,4,Kombi,bilinmiyor,yok,var,var,var,yok,var,var,var,var,yok,var,yok,yok,var,yok,yok,yok,yok,yok,yok,yok,yok,var,yok,yok,var,yok,yok,yok,yok,kademe_4,bilinmiyor,bilinmiyor,bilinmiyor,100_125_m2,3_oda,orta_4_7_kat,1_banyo,dusuk,yok,dusuk,orta,yuksek,yuksek,yok,3_4_Milyon_TL_Arasi
Artvin,Hopa,Satilik,11_15_arasi,1,bilinmiyor,bilinmiyor,yok,var,var,yok,yok,yok,yok,yok,yok,yok,yok,yok,yok,yok,yok,yok,yok,yok,yok,yok,yok,yok,yok,yok,yok,yok,yok,yok,yok,yok,kademe_4,bilinmiyor,bilinmiyor,bilinmiyor,125_150_m2,4_oda,alcak_1_3_kat,1_banyo,yok,yok,yok,dusuk,yok,yok,yok,4_5_Milyon_TL_Arasi
Aksaray,Merkez,Satilik,1_5_arasi,bilinmiyor,Kombi_Dogalgaz,bilinmiyor,yok,var,yok,var,yok,var,var,var,var,yok,var,var,yok,var,var,yok,yok,yok,yok,yok,yok,yok,var,yok,yok,var,var,yok,yok,yok,kademe_4,bilinmiyor,iyi,bilinmiyor,300_m2_ve_ustu,7_oda_ve_ustu,alcak_1_3_kat,3_banyo_ve_ustu,dusuk,orta,yok,orta,orta,yuksek,yok,10_Milyon_TL_Ustu
Amasya,Merzifon,Satilik,1_5_arasi,2,Kombi_Dogalgaz,bilinmiyor,yok,yok,var,yok,yok,var,yok,var,var,yok,yok,yok,yok,yok,yok,yok,yok,yok,yok,yok,yok,yok,yok,yok,yok,yok,yok,yok,yok,yok,kademe_4,normal,normal,kotu,125_150_m2,4_oda,orta_4_7_kat,2_banyo,yok,yok,yok,dusuk,yok,yok,yok,5_7_Bucuk_Milyon_TL_Arasi
Amasya,Merzifon,Satilik,6_10_arasi,3,Kombi_Dogalgaz,bilinmiyor,yok,var,var,var,var,var,yok,var,yok,yok,var,yok,yok,var,yok,yok,yok,yok,yok,yok,yok,yok,yok,yok,yok,var,var,yok,yok,yok,kademe_4,iyi,normal,bilinmiyor,75_100_m2,2_oda,orta_4_7_kat,1_banyo,yok,dusuk,yok,orta,orta,orta,yok,1_5_2_Milyon_TL_Arasi
Afyonkarahisar,Merkez,Satilik,1_5_arasi,2,Kombi_Dogalgaz,bilinmiyor,yok,var,var,yok,yok,var,yok,var,yok,yok,var,yok,yok,var,yok,yok,yok,yok,yok,yok,yok,yok,yok,yok,yok,yok,yok,yok,yok,yok,kademe_4,kotu,bilinmiyor,bilinmiyor,125_150_m2,4_oda,orta_4_7_kat,bilinmiyor,yok,yok,yok,dusuk,yok,yuksek,yok,4_5_Milyon_TL_Arasi
Kastamonu,Inebolu,Satilik,0,4,Kombi,bilinmiyor,yok,var,var,var,yok,yok,var,var,var,yok,var,yok,yok,var,yok,yok,yok,yok,yok,yok,yok,yok,var,yok,yok,var,yok,yok,yok,yok,kademe_4,bilinmiyor,normal,bilinmiyor,75_100_m2,3_oda,orta_4_7_kat,1_banyo,dusuk,yok,yok,dusuk,orta,yuksek,yok,4_5_Milyon_TL_Arasi
Afyonkarahisar,Merkez,Satilik,0,1,Yerden_Isitma,bilinmiyor,yok,yok,var,yok,yok,yok,yok,yok,var,yok,yok,yok,yok,yok,yok,yok,yok,yok,yok,yok,yok,yok,yok,yok,yok,yok,yok,yok,yok,yok,kademe_4,iyi,bilinmiyor,bilinmiyor,75_100_m2,2_oda,orta_4_7_kat,1_banyo,yok,yok,yok,dusuk,yok,yok,yok,3_4_Milyon_TL_Arasi
Aksaray,Merkez,Satilik,1_5_arasi,2,Kombi,bilinmiyor,yok,var,var,var,yok,var,yok,var,yok,yok,yok,yok,yok,yok,yok,yok,yok,yok,yok,yok,yok,yok,var,yok,yok,yok,yok,yok,yok,yok,kademe_4,bilinmiyor,bilinmiyor,bilinmiyor,150_200_m2,4_oda,orta_4_7_kat,1_banyo,yok,yok,yok,yok,yok,orta,yok,5_7_Bucuk_Milyon_TL_Arasi
Kastamonu,Seydiler,Satilik,0,2,Kombi,bilinmiyor,yok,var,var,var,yok,var,yok,var,var,yok,var,yok,yok,var,yok,yok,yok,yok,yok,yok,yok,yok,var,yok,yok,var,yok,yok,yok,yok,kademe_4,bilinmiyor,normal,bilinmiyor,125_150_m2,4_oda,orta_4_7_kat,1_banyo,yok,yok,dusuk,orta,yuksek,yuksek,yok,3_4_Milyon_TL_Arasi
Amasya,Merzifon,Satilik,21_25_arasi,5,Kombi,bilinmiyor,yok,var,var,var,yok,yok,var,var,yok,yok,var,yok,yok,yok,yok,yok,yok,yok,yok,yok,yok,yok,yok,yok,yok,var,yok,yok,yok,yok,kademe_4,kotu,kotu,bilinmiyor,150_200_m2,4_oda,orta_4_7_kat,1_banyo,yok,yok,yok,dusuk,yok,yuksek,yok,3_4_Milyon_TL_Arasi
Kirsehir,Merkez,Satilik,0,4,Kombi,bilinmiyor,yok,var,yok,yok,yok,yok,yok,yok,yok,yok,yok,yok,yok,yok,yok,yok,yok,yok,yok,yok,yok,yok,yok,yok,yok,yok,yok,yok,yok,yok,kademe_4,kotu,normal,bilinmiyor,150_200_m2,5_oda,orta_4_7_kat,2_banyo,yok,yok,yok,dusuk,yok,yok,yok,5_7_Bucuk_Milyon_TL_Arasi
Amasya,Merzifon,Satilik,11_15_arasi,bilinmiyor,Kombi_Dogalgaz,bilinmiyor,yok,var,yok,var,yok,yok,var,var,yok,yok,var,yok,yok,yok,yok,yok,yok,yok,yok,yok,yok,yok,yok,yok,yok,var,yok,yok,yok,yok,kademe_4,kotu,bilinmiyor,kotu,300_m2_ve_ustu,3_oda,alcak_1_3_kat,1_banyo,yok,yok,yok,dusuk,yok,yuksek,yok,5_7_Bucuk_Milyon_TL_Arasi
Kastamonu,Merkez,Satilik,11_15_arasi,2,Kombi,bilinmiyor,yok,var,yok,var,yok,var,yok,yok,var,yok,var,yok,yok,yok,yok,yok,yok,yok,yok,yok,yok,yok,yok,yok,yok,var,yok,yok,yok,yok,kademe_4,bilinmiyor,bilinmiyor,bilinmiyor,200_300_m2,5_oda,yuksek_8_15_kat,2_banyo,dusuk,yok,dusuk,dusuk,orta,orta,yok,7_Bucuk_10_Milyon_TL_Arasi
Afyonkarahisar,Merkez,Satilik,1_5_arasi,Ara_Kat,Kombi_Dogalgaz,bilinmiyor,yok,var,var,yok,var,yok,var,var,yok,yok,var,yok,yok,yok,yok,yok,yok,yok,yok,yok,yok,yok,yok,yok,yok,yok,yok,yok,yok,yok,kademe_4,kotu,normal,normal,50_75_m2,2_oda,orta_4_7_kat,1_banyo,yok,yok,yok,dusuk,yok,yuksek,yok,1_5_2_Milyon_TL_Arasi
Afyonkarahisar,Merkez,Satilik,31_ve_uzeri,3,Kombi_Dogalgaz,bilinmiyor,yok,var,var,yok,yok,var,yok,var,yok,yok,yok,yok,yok,yok,yok,yok,yok,yok,yok,yok,yok,yok,yok,yok,yok,yok,yok,yok,yok,yok,kademe_4,kotu,bilinmiyor,bilinmiyor,125_150_m2,4_oda,orta_4_7_kat,1_banyo,yok,yok,yok,dusuk,yok,yok,yok,2_3_Milyon_TL_Arasi
Amasya,Merzifon,Satilik,26_30_arasi,5,Kombi_Dogalgaz,bilinmiyor,yok,var,yok,yok,yok,yok,yok,var,yok,yok,var,yok,yok,yok,yok,yok,yok,yok,yok,yok,yok,yok,yok,yok,yok,yok,yok,yok,yok,yok,kademe_4,normal,bilinmiyor,kotu,100_125_m2,3_oda,orta_4_7_kat,1_banyo,dusuk,yok,yok,dusuk,yok,yuksek,yok,2_3_Milyon_TL_Arasi
Afyonkarahisar,Merkez,Satilik,0,2,Kombi,bilinmiyor,yok,var,yok,var,yok,yok,yok,yok,yok,yok,yok,yok,yok,yok,yok,yok,yok,yok,yok,yok,yok,yok,yok,yok,yok,yok,yok,yok,yok,yok,kademe_4,bilinmiyor,iyi,iyi,75_100_m2,3_oda,alcak_1_3_kat,1_banyo,yok,yok,yok,dusuk,yok,yok,yok,3_4_Milyon_TL_Arasi
Kastamonu,Merkez,Satilik,1_5_arasi,14,Merkezi,bilinmiyor,yok,var,yok,yok,yok,yok,yok,var,yok,yok,var,var,yok,var,yok,yok,yok,yok,yok,yok,yok,yok,var,yok,yok,var,yok,yok,yok,yok,kademe_4,iyi,iyi,bilinmiyor,200_300_m2,5_oda,cok_yuksek_16_ustu_kat,2_banyo,dusuk,dusuk,dusuk,dusuk,orta,yuksek,yok,10_Milyon_TL_Ustu
Aksaray,Merkez,Satilik,11_15_arasi,Ara_Kat,Merkezi,bilinmiyor,yok,var,yok,var,yok,yok,yok,var,yok,yok,var,yok,yok,yok,yok,yok,yok,yok,yok,yok,yok,yok,var,yok,yok,var,yok,yok,yok,yok,kademe_4,normal,kotu,kotu,50_75_m2,3_oda,orta_4_7_kat,1_banyo,yok,yok,yok,dusuk,orta,yuksek,yok,2_3_Milyon_TL_Arasi
Aksaray,Merkez,Satilik,1_5_arasi,3,Yerden_Isitma,bilinmiyor,yok,var,yok,yok,var,yok,yok,var,yok,yok,yok,yok,yok,yok,yok,yok,yok,yok,yok,yok,yok,yok,yok,yok,yok,yok,yok,yok,yok,yok,kademe_4,iyi,normal,normal,0_50_m2,2_oda,orta_4_7_kat,1_banyo,yok,yok,yok,dusuk,yok,yok,yok,1_5_Milyon_TL_Alti
Aksaray,Merkez,Satilik,0,Ara_Kat,Kombi_Dogalgaz,bilinmiyor,yok,yok,yok,yok,yok,yok,var,yok,yok,yok,yok,yok,yok,yok,yok,yok,yok,yok,yok,yok,yok,yok,yok,yok,yok,yok,yok,yok,yok,yok,kademe_4,normal,iyi,normal,100_125_m2,3_oda,alcak_1_3_kat,1_banyo,yok,yok,yok,yok,yok,yok,yok,4_5_Milyon_TL_Arasi
Aksaray,Merkez,Satilik,0,Yuksek_Giris,Kombi,bilinmiyor,yok,var,var,yok,yok,yok,yok,yok,yok,yok,yok,yok,yok,yok,yok,yok,yok,yok,yok,yok,yok,yok,yok,yok,yok,yok,yok,yok,yok,yok,kademe_4,bilinmiyor,normal,bilinmiyor,100_125_m2,3_oda,orta_4_7_kat,1_banyo,yok,yok,yok,dusuk,yok,yok,yok,3_4_Milyon_TL_Arasi
Aksaray,Merkez,Satilik,1_5_arasi,4,Kombi,bilinmiyor,yok,var,yok,var,yok,yok,var,yok,var,yok,var,var,yok,var,yok,yok,yok,yok,yok,yok,yok,yok,var,yok,yok,var,yok,yok,yok,yok,kademe_4,iyi,iyi,normal,150_200_m2,4_oda,orta_4_7_kat,2_banyo,yok,dusuk,yok,orta,yuksek,yuksek,yok,5_7_Bucuk_Milyon_TL_Arasi
Amasya,Merzifon,Satilik,6_10_arasi,4,Kombi,bilinmiyor,yok,var,var,yok,yok,yok,var,yok,yok,yok,yok,yok,yok,yok,yok,yok,yok,yok,yok,yok,yok,yok,yok,yok,yok,yok,yok,yok,yok,yok,kademe_4,normal,normal,iyi,50_75_m2,2_oda,orta_4_7_kat,1_banyo,yok,yok,yok,dusuk,yok,yok,yok,1_5_2_Milyon_TL_Arasi
Aksaray,Merkez,Satilik,0,Yuksek_Giris,Yerden_Isitma,bilinmiyor,yok,var,var,var,var,var,yok,var,yok,yok,yok,yok,yok,yok,yok,yok,yok,yok,yok,yok,yok,yok,yok,yok,yok,yok,yok,yok,yok,yok,kademe_4,bilinmiyor,normal,bilinmiyor,0_50_m2,2_oda,orta_4_7_kat,1_banyo,yok,yok,yok,yok,yok,yok,yok,1_5_Milyon_TL_Alti
Kastamonu,Merkez,Satilik,0,5,Merkezi,bilinmiyor,yok,var,var,var,yok,yok,yok,yok,yok,yok,yok,yok,yok,yok,yok,yok,yok,yok,yok,yok,yok,yok,yok,yok,yok,yok,yok,yok,yok,yok,kademe_4,iyi,normal,bilinmiyor,50_75_m2,2_oda,cok_yuksek_16_ustu_kat,1_banyo,yok,yok,yok,dusuk,yok,yok,yok,2_3_Milyon_TL_Arasi
Elazig,Merkez,Satilik,1_5_arasi,Yuksek_Giris,Merkezi,bilinmiyor,yok,var,var,var,yok,yok,yok,yok,yok,yok,var,yok,yok,yok,yok,yok,yok,yok,yok,yok,yok,yok,var,yok,yok,var,yok,yok,yok,yok,kademe_4,iyi,kotu,iyi,75_100_m2,3_oda,orta_4_7_kat,1_banyo,dusuk,yok,yok,orta,orta,orta,yok,2_3_Milyon_TL_Arasi
Aksaray,Merkez,Satilik,1_5_arasi,4,Kombi,bilinmiyor,yok,var,var,yok,yok,var,yok,yok,var,yok,yok,yok,yok,yok,yok,yok,yok,yok,yok,yok,yok,yok,yok,yok,yok,var,yok,yok,yok,yok,kademe_4,iyi,normal,bilinmiyor,150_200_m2,4_oda,orta_4_7_kat,1_banyo,dusuk,yok,yok,yok,dusuk,dusuk,yok,4_5_Milyon_TL_Arasi
Amasya,Merzifon,Satilik,21_25_arasi,bilinmiyor,Soba,bilinmiyor,yok,yok,yok,yok,yok,yok,yok,yok,yok,yok,yok,yok,yok,yok,yok,yok,yok,yok,yok,yok,yok,yok,yok,yok,yok,yok,var,yok,yok,yok,kademe_4,normal,kotu,bilinmiyor,125_150_m2,4_oda,alcak_1_3_kat,1_banyo,yok,yok,yok,dusuk,yok,yok,yok,1_5_2_Milyon_TL_Arasi
Amasya,Merkez,Satilik,0,2,Yerden_Isitma,bilinmiyor,yok,var,var,var,yok,yok,yok,yok,yok,yok,yok,yok,yok,yok,yok,yok,yok,yok,yok,yok,yok,yok,yok,yok,yok,yok,yok,yok,yok,yok,kademe_4,iyi,normal,normal,50_75_m2,2_oda,orta_4_7_kat,1_banyo,yok,yok,yok,dusuk,yok,yok,yok,1_5_2_Milyon_TL_Arasi
Amasya,Merzifon,Satilik,6_10_arasi,3,Kombi_Dogalgaz,bilinmiyor,yok,yok,var,yok,yok,var,var,yok,var,yok,yok,yok,yok,yok,yok,yok,yok,yok,yok,yok,yok,yok,yok,yok,yok,yok,yok,yok,yok,yok,kademe_4,iyi,iyi,iyi,100_125_m2,3_oda,orta_4_7_kat,2_banyo,yok,yok,yok,dusuk,yok,yok,yok,2_3_Milyon_TL_Arasi
Amasya,Merkez,Satilik,16_20_arasi,4,Kombi,bilinmiyor,yok,var,yok,var,yok,yok,yok,yok,yok,yok,var,yok,yok,var,yok,yok,yok,yok,yok,yok,yok,yok,yok,yok,yok,yok,yok,yok,yok,yok,kademe_4,iyi,normal,bilinmiyor,100_125_m2,3_oda,orta_4_7_kat,1_banyo,yok,yok,yok,dusuk,orta,yuksek,yok,2_3_Milyon_TL_Arasi
Sivas,Divrigi,Satilik,11_15_arasi,Bahce,Soba,bilinmiyor,yok,var,yok,yok,yok,yok,yok,yok,yok,yok,yok,yok,yok,yok,yok,yok,yok,yok,yok,yok,yok,yok,yok,yok,yok,yok,yok,yok,yok,yok,kademe_4,bilinmiyor,bilinmiyor,bilinmiyor,300_m2_ve_ustu,1_oda,alcak_1_3_kat,1_banyo,yok,yok,yok,dusuk,yok,yok,yok,7_Bucuk_10_Milyon_TL_Arasi
Amasya,Merzifon,Satilik,6_10_arasi,5,Kombi,bilinmiyor,yok,var,var,var,yok,var,yok,var,yok,yok,var,yok,yok,yok,yok,yok,yok,yok,yok,yok,yok,yok,var,yok,yok,var,var,yok,yok,yok,kademe_4,normal,normal,bilinmiyor,125_150_m2,5_oda,orta_4_7_kat,1_banyo,yok,yok,dusuk,dusuk,orta,yuksek,yok,3_4_Milyon_TL_Arasi
Kastamonu,Merkez,Satilik,6_10_arasi,3,Kombi,bilinmiyor,yok,var,var,var,yok,yok,var,var,yok,yok,var,yok,yok,yok,yok,yok,yok,yok,yok,yok,yok,yok,var,yok,yok,var,yok,yok,yok,yok,kademe_4,kotu,normal,bilinmiyor,125_150_m2,4_oda,orta_4_7_kat,1_banyo,dusuk,yok,dusuk,orta,yuksek,yuksek,yok,5_7_Bucuk_Milyon_TL_Arasi
Amasya,Merzifon,Satilik,1_5_arasi,Yuksek_Giris,Kombi_Dogalgaz,bilinmiyor,yok,yok,var,yok,yok,yok,var,var,var,yok,yok,yok,yok,yok,yok,yok,yok,yok,yok,yok,yok,yok,yok,yok,yok,yok,yok,yok,yok,yok,kademe_4,normal,normal,bilinmiyor,125_150_m2,4_oda,orta_4_7_kat,2_banyo,yok,yok,yok,dusuk,yok,yok,yok,4_5_Milyon_TL_Arasi
Kastamonu,Merkez,Satilik,0,Bahce,Kombi,bilinmiyor,yok,var,yok,var,yok,var,yok,var,yok,yok,var,var,yok,var,yok,yok,yok,yok,yok,yok,yok,yok,var,yok,yok,yok,var,yok,yok,yok,kademe_4,bilinmiyor,bilinmiyor,bilinmiyor,200_300_m2,5_oda,alcak_1_3_kat,3_banyo_ve_ustu,dusuk,dusuk,yok,orta,orta,yuksek,yok,10_Milyon_TL_Ustu
Artvin,Merkez,Satilik,21_25_arasi,Yuksek_Giris,Merkezi,bilinmiyor,yok,yok,yok,yok,yok,yok,yok,yok,yok,yok,yok,yok,yok,yok,yok,yok,yok,yok,yok,yok,yok,yok,yok,yok,yok,yok,yok,yok,yok,yok,kademe_4,bilinmiyor,bilinmiyor,bilinmiyor,125_150_m2,6_oda,orta_4_7_kat,2_banyo,yok,yok,yok,dusuk,yok,yok,yok,3_4_Milyon_TL_Arasi
Aksaray,Merkez,Satilik,0,Ara_Kat,Kombi,bilinmiyor,yok,var,yok,yok,yok,yok,yok,yok,yok,yok,yok,yok,yok,yok,yok,yok,yok,yok,yok,yok,yok,yok,yok,yok,yok,yok,yok,yok,yok,yok,kademe_4,normal,bilinmiyor,bilinmiyor,150_200_m2,5_oda,orta_4_7_kat,2_banyo,yok,yok,yok,dusuk,yok,yok,yok,5_7_Bucuk_Milyon_TL_Arasi
Kirsehir,Merkez,Satilik,0,Yuksek_Giris,Kombi,bilinmiyor,yok,var,yok,yok,yok,yok,yok,yok,yok,yok,yok,yok,yok,yok,yok,yok,yok,yok,yok,yok,yok,yok,yok,yok,yok,yok,yok,yok,yok,yok,kademe_4,normal,iyi,bilinmiyor,125_150_m2,4_oda,orta_4_7_kat,1_banyo,yok,yok,yok,dusuk,yok,yok,yok,3_4_Milyon_TL_Arasi
Aksaray,Agacoren,Satilik,31_ve_uzeri,1,Kombi,bilinmiyor,yok,yok,yok,yok,yok,yok,yok,yok,yok,yok,yok,yok,yok,yok,yok,yok,yok,yok,yok,yok,yok,yok,yok,yok,yok,yok,yok,yok,yok,yok,kademe_4,bilinmiyor,bilinmiyor,bilinmiyor,100_125_m2,4_oda,orta_4_7_kat,1_banyo,yok,yok,yok,dusuk,yok,yok,yok,1_5_2_Milyon_TL_Arasi
Sivas,Merkez,Satilik,31_ve_uzeri,4,Kombi,bilinmiyor,yok,var,var,var,yok,yok,var,var,yok,yok,yok,var,yok,yok,yok,yok,yok,yok,yok,yok,yok,yok,var,yok,yok,var,yok,yok,yok,yok,kademe_4,iyi,normal,bilinmiyor,150_200_m2,4_oda,orta_4_7_kat,2_banyo,yok,yok,dusuk,dusuk,yuksek,orta,yok,3_4_Milyon_TL_Arasi
Aksaray,Merkez,Satilik,1_5_arasi,3,Kombi,bilinmiyor,yok,var,yok,yok,var,yok,yok,var,yok,yok,var,yok,yok,yok,yok,yok,yok,yok,yok,yok,yok,yok,yok,yok,yok,yok,yok,yok,yok,yok,kademe_4,iyi,normal,bilinmiyor,0_50_m2,2_oda,orta_4_7_kat,1_banyo,dusuk,yok,dusuk,dusuk,orta,yuksek,yok,1_5_2_Milyon_TL_Arasi
Sivas,Merkez,Satilik,16_20_arasi,3,Kombi_Dogalgaz,bilinmiyor,yok,var,var,var,yok,yok,var,var,yok,yok,yok,yok,yok,yok,yok,yok,yok,yok,yok,yok,yok,yok,yok,yok,yok,yok,yok,yok,yok,yok,kademe_4,normal,kotu,bilinmiyor,100_125_m2,3_oda,yuksek_8_15_kat,1_banyo,yok,yok,yok,yok,dusuk,yok,yok,2_3_Milyon_TL_Arasi
Amasya,Merkez,Satilik,11_15_arasi,bilinmiyor,Kombi_Dogalgaz,bilinmiyor,yok,yok,yok,yok,yok,yok,yok,var,yok,yok,yok,yok,yok,var,yok,yok,yok,yok,yok,yok,yok,yok,yok,yok,yok,yok,yok,yok,yok,yok,kademe_4,kotu,normal,bilinmiyor,100_125_m2,5_oda,alcak_1_3_kat,2_banyo,yok,yok,yok,dusuk,yok,yok,yok,3_4_Milyon_TL_Arasi
Amasya,Merkez,Satilik,1_5_arasi,bilinmiyor,Kombi,bilinmiyor,yok,var,yok,yok,yok,yok,yok,var,yok,yok,var,yok,yok,var,yok,yok,yok,yok,yok,yok,yok,yok,yok,yok,yok,yok,yok,yok,yok,yok,kademe_4,bilinmiyor,bilinmiyor,bilinmiyor,100_125_m2,3_oda,alcak_1_3_kat,1_banyo,yok,yok,yok,yok,yok,yok,yok,5_7_Bucuk_Milyon_TL_Arasi
Aksaray,Merkez,Satilik,1_5_arasi,4,Kombi,bilinmiyor,yok,var,yok,yok,yok,var,yok,var,yok,yok,yok,yok,yok,yok,yok,yok,yok,yok,yok,yok,yok,yok,yok,yok,yok,yok,yok,yok,yok,yok,kademe_4,kotu,iyi,bilinmiyor,150_200_m2,4_oda,orta_4_7_kat,1_banyo,yok,yok,yok,dusuk,yok,yok,yok,5_7_Bucuk_Milyon_TL_Arasi
Elazig,Merkez,Satilik,1_5_arasi,1,Merkezi,bilinmiyor,yok,yok,yok,yok,yok,yok,yok,var,var,yok,yok,yok,yok,yok,yok,yok,yok,yok,yok,yok,yok,yok,yok,yok,yok,yok,yok,yok,yok,yok,kademe_4,normal,bilinmiyor,normal,150_200_m2,4_oda,orta_4_7_kat,2_banyo,yok,yok,yok,dusuk,yok,yok,yok,3_4_Milyon_TL_Arasi
Amasya,Suluova,Satilik,6_10_arasi,4,Kombi_Dogalgaz,bilinmiyor,yok,var,yok,yok,yok,yok,yok,yok,yok,yok,yok,yok,yok,yok,yok,yok,yok,yok,yok,yok,yok,yok,yok,yok,yok,yok,yok,yok,yok,yok,kademe_4,kotu,kotu,bilinmiyor,125_150_m2,3_oda,orta_4_7_kat,1_banyo,yok,yok,yok,dusuk,yok,yok,yok,2_3_Milyon_TL_Arasi
Amasya,Merzifon,Satilik,1_5_arasi,1,Kombi,bilinmiyor,yok,var,yok,var,var,yok,yok,var,yok,yok,yok,yok,yok,yok,yok,yok,yok,yok,yok,yok,yok,yok,yok,yok,yok,var,yok,yok,yok,yok,kademe_4,kotu,normal,normal,50_75_m2,2_oda,orta_4_7_kat,1_banyo,yok,yok,yok,dusuk,orta,yok,yok,4_5_Milyon_TL_Arasi
Amasya,Merkez,Satilik,6_10_arasi,Ara_Kat,Kat_Kaloriferi,bilinmiyor,yok,yok,yok,yok,yok,var,yok,yok,yok,yok,var,yok,yok,yok,yok,yok,yok,yok,yok,yok,yok,yok,yok,yok,yok,var,yok,yok,yok,yok,kademe_4,normal,normal,bilinmiyor,50_75_m2,2_oda,orta_4_7_kat,1_banyo,yok,yok,yok,dusuk,dusuk,yuksek,yok,1_5_2_Milyon_TL_Arasi
Sivas,Merkez,Satilik,26_30_arasi,Yuksek_Giris,Merkezi,bilinmiyor,yok,var,yok,yok,yok,var,var,var,yok,yok,var,yok,yok,var,yok,yok,yok,yok,yok,yok,yok,yok,yok,yok,yok,yok,yok,yok,yok,yok,kademe_4,normal,bilinmiyor,kotu,125_150_m2,4_oda,orta_4_7_kat,1_banyo,yok,yok,yok,yok,orta,orta,yok,3_4_Milyon_TL_Arasi
Afyonkarahisar,Merkez,Satilik,0,2,Yerden_Isitma,bilinmiyor,yok,var,yok,var,yok,yok,yok,var,yok,yok,yok,yok,yok,yok,yok,yok,yok,yok,yok,yok,yok,yok,yok,yok,yok,yok,yok,yok,yok,yok,kademe_4,iyi,iyi,bilinmiyor,75_100_m2,3_oda,orta_4_7_kat,1_banyo,yok,yok,yok,dusuk,yok,yok,yok,4_5_Milyon_TL_Arasi
Aksaray,Merkez,Satilik,6_10_arasi,Giris,Merkezi,bilinmiyor,yok,var,var,var,yok,yok,yok,yok,yok,yok,yok,yok,yok,yok,yok,yok,yok,yok,yok,yok,yok,yok,yok,yok,yok,yok,yok,yok,yok,yok,kademe_4,normal,normal,bilinmiyor,75_100_m2,3_oda,orta_4_7_kat,1_banyo,yok,yok,yok,dusuk,dusuk,yok,yok,2_3_Milyon_TL_Arasi
Amasya,Suluova,Satilik,6_10_arasi,Ara_Kat,Kombi,bilinmiyor,yok,yok,yok,yok,yok,yok,yok,yok,yok,yok,yok,yok,yok,yok,yok,yok,yok,yok,yok,yok,yok,yok,yok,yok,yok,yok,yok,yok,yok,yok,kademe_4,normal,normal,kotu,100_125_m2,3_oda,orta_4_7_kat,1_banyo,yok,yok,yok,dusuk,yok,yok,yok,2_3_Milyon_TL_Arasi
Kastamonu,Merkez,Satilik,0,8,Merkezi,bilinmiyor,yok,var,yok,var,yok,yok,var,var,yok,yok,var,yok,yok,var,yok,yok,yok,yok,yok,yok,yok,yok,var,yok,yok,var,yok,yok,yok,yok,kademe_4,iyi,bilinmiyor,bilinmiyor,75_100_m2,3_oda,yuksek_8_15_kat,1_banyo,dusuk,yok,dusuk,dusuk,orta,yuksek,yok,3_4_Milyon_TL_Arasi
Aksaray,Merkez,Satilik,21_25_arasi,8,Kombi,bilinmiyor,yok,var,var,var,yok,yok,var,var,yok,yok,var,yok,yok,yok,yok,yok,yok,yok,yok,yok,yok,yok,yok,yok,yok,var,yok,yok,yok,yok,kademe_4,kotu,kotu,bilinmiyor,125_150_m2,4_oda,yuksek_8_15_kat,1_banyo,yok,yok,dusuk,dusuk,yuksek,dusuk,yok,2_3_Milyon_TL_Arasi
Elazig,Merkez,Satilik,6_10_arasi,5,Kombi,bilinmiyor,yok,var,var,var,yok,yok,var,var,var,yok,var,var,yok,yok,yok,yok,yok,yok,yok,yok,yok,yok,yok,yok,yok,var,yok,yok,yok,yok,kademe_4,normal,bilinmiyor,normal,150_200_m2,4_oda,orta_4_7_kat,2_banyo,yok,yok,yok,dusuk,dusuk,yuksek,yok,3_4_Milyon_TL_Arasi
Amasya,Merzifon,Satilik,11_15_arasi,3,Merkezi,bilinmiyor,yok,var,var,var,yok,var,yok,yok,var,yok,var,yok,yok,var,yok,yok,yok,yok,yok,yok,yok,yok,yok,yok,yok,yok,yok,yok,yok,yok,kademe_4,normal,kotu,kotu,150_200_m2,4_oda,yuksek_8_15_kat,1_banyo,dusuk,yok,yok,dusuk,yok,orta,yok,3_4_Milyon_TL_Arasi
Amasya,Merkez,Satilik,1_5_arasi,4,Kombi,bilinmiyor,yok,var,var,var,yok,yok,yok,yok,yok,yok,var,yok,yok,var,yok,yok,yok,yok,yok,yok,yok,yok,yok,yok,yok,yok,yok,yok,yok,yok,kademe_4,normal,normal,bilinmiyor,100_125_m2,3_oda,orta_4_7_kat,2_banyo,dusuk,yok,yok,dusuk,orta,orta,yok,4_5_Milyon_TL_Arasi
Kastamonu,Merkez,Satilik,26_30_arasi,4,Kombi,bilinmiyor,yok,var,yok,var,yok,yok,yok,yok,yok,yok,yok,yok,yok,yok,yok,yok,yok,yok,yok,yok,yok,yok,yok,yok,yok,yok,yok,yok,yok,yok,kademe_4,kotu,kotu,bilinmiyor,100_125_m2,3_oda,orta_4_7_kat,1_banyo,yok,yok,yok,dusuk,yok,yok,yok,3_4_Milyon_TL_Arasi
Amasya,Merzifon,Satilik,21_25_arasi,5,Kombi_Dogalgaz,bilinmiyor,yok,var,yok,var,yok,var,var,var,yok,yok,var,yok,yok,var,yok,yok,yok,yok,yok,yok,yok,yok,yok,yok,yok,var,yok,yok,yok,yok,kademe_4,bilinmiyor,normal,bilinmiyor,100_125_m2,3_oda,orta_4_7_kat,1_banyo,yok,yok,yok,dusuk,yok,orta,yok,1_5_2_Milyon_TL_Arasi
Kirsehir,Merkez,Satilik,0,Yuksek_Giris,Yerden_Isitma,bilinmiyor,yok,var,yok,yok,yok,yok,yok,yok,yok,yok,yok,yok,yok,yok,yok,yok,yok,yok,yok,yok,yok,yok,yok,yok,yok,yok,yok,yok,yok,yok,kademe_4,normal,bilinmiyor,kotu,100_125_m2,4_oda,orta_4_7_kat,2_banyo,yok,yok,yok,dusuk,yok,yok,yok,3_4_Milyon_TL_Arasi
Sivas,Merkez,Satilik,31_ve_uzeri,4,Kombi,bilinmiyor,yok,var,yok,var,yok,var,yok,yok,var,yok,var,yok,yok,var,yok,yok,yok,yok,yok,yok,yok,yok,var,yok,yok,var,yok,yok,yok,yok,kademe_4,iyi,kotu,bilinmiyor,125_150_m2,3_oda,orta_4_7_kat,1_banyo,yok,yok,yok,dusuk,orta,orta,yok,2_3_Milyon_TL_Arasi
Amasya,Merzifon,Satilik,0,2,Yerden_Isitma,bilinmiyor,yok,var,var,yok,yok,var,yok,yok,yok,yok,var,yok,yok,var,yok,yok,yok,yok,yok,yok,yok,yok,yok,yok,yok,var,yok,yok,yok,yok,kademe_4,iyi,iyi,kotu,75_100_m2,2_oda,orta_4_7_kat,1_banyo,dusuk,yok,yok,dusuk,yok,orta,yok,2_3_Milyon_TL_Arasi
Kastamonu,Merkez,Satilik,0,4,Yerden_Isitma,bilinmiyor,yok,var,yok,var,yok,yok,var,var,var,yok,var,yok,yok,yok,yok,yok,yok,yok,yok,yok,yok,yok,var,yok,yok,yok,yok,yok,yok,yok,kademe_4,bilinmiyor,bilinmiyor,bilinmiyor,50_75_m2,2_oda,yuksek_8_15_kat,1_banyo,dusuk,yok,dusuk,dusuk,orta,orta,yok,2_3_Milyon_TL_Arasi
Afyonkarahisar,Merkez,Satilik,0,3,Yerden_Isitma,bilinmiyor,yok,var,var,var,yok,var,var,var,yok,yok,var,var,yok,var,yok,yok,yok,yok,yok,yok,yok,yok,var,yok,yok,var,yok,yok,yok,yok,kademe_4,iyi,iyi,bilinmiyor,200_300_m2,5_oda,yuksek_8_15_kat,2_banyo,dusuk,dusuk,orta,orta,yuksek,yuksek,yok,5_7_Bucuk_Milyon_TL_Arasi
Kastamonu,Tosya,Satilik,26_30_arasi,4,Kombi_Dogalgaz,bilinmiyor,yok,var,var,var,yok,yok,yok,var,yok,yok,var,yok,yok,yok,yok,yok,yok,yok,yok,yok,yok,yok,var,yok,yok,var,yok,yok,yok,yok,kademe_4,kotu,bilinmiyor,bilinmiyor,125_150_m2,4_oda,orta_4_7_kat,1_banyo,yok,dusuk,yok,dusuk,dusuk,dusuk,yok,2_3_Milyon_TL_Arasi
Amasya,Merkez,Satilik,0,5,Yerden_Isitma,bilinmiyor,yok,yok,yok,yok,yok,yok,yok,yok,yok,yok,yok,yok,yok,yok,yok,yok,yok,yok,yok,yok,yok,yok,yok,yok,yok,yok,yok,yok,yok,yok,kademe_4,kotu,iyi,bilinmiyor,50_75_m2,2_oda,orta_4_7_kat,1_banyo,yok,yok,yok,dusuk,yok,yok,yok,1_5_2_Milyon_TL_Arasi
Amasya,Merzifon,Satilik,6_10_arasi,2,Kombi,bilinmiyor,yok,var,var,var,yok,var,yok,var,yok,yok,var,yok,yok,var,yok,yok,yok,yok,yok,yok,yok,yok,yok,yok,yok,var,yok,yok,yok,yok,kademe_4,bilinmiyor,kotu,bilinmiyor,150_200_m2,5_oda,orta_4_7_kat,2_banyo,dusuk,dusuk,dusuk,dusuk,yuksek,yuksek,yok,5_7_Bucuk_Milyon_TL_Arasi
Kastamonu,Inebolu,Satilik,11_15_arasi,bilinmiyor,Kombi_Dogalgaz,bilinmiyor,yok,yok,yok,var,var,yok,yok,yok,yok,yok,yok,yok,yok,yok,yok,yok,yok,yok,yok,yok,yok,yok,yok,yok,yok,yok,yok,yok,yok,yok,kademe_4,normal,kotu,bilinmiyor,200_300_m2,6_oda,orta_4_7_kat,3_banyo_ve_ustu,yok,yok,yok,dusuk,yok,yok,yok,7_Bucuk_10_Milyon_TL_Arasi
Afyonkarahisar,Merkez,Satilik,0,1,Yerden_Isitma,bilinmiyor,yok,var,var,var,yok,yok,yok,var,yok,yok,yok,yok,yok,yok,yok,yok,yok,yok,yok,yok,yok,yok,yok,yok,yok,var,yok,yok,yok,yok,kademe_4,iyi,bilinmiyor,kotu,125_150_m2,4_oda,orta_4_7_kat,2_banyo,yok,yok,yok,dusuk,yok,yuksek,yok,5_7_Bucuk_Milyon_TL_Arasi
Artvin,Arhavi,Satilik,6_10_arasi,Ara_Kat,Merkezi,bilinmiyor,yok,var,var,var,yok,yok,var,var,yok,yok,var,var,yok,yok,yok,yok,yok,yok,yok,yok,yok,yok,var,yok,yok,yok,yok,yok,yok,yok,kademe_4,normal,bilinmiyor,normal,150_200_m2,4_oda,yuksek_8_15_kat,2_banyo,yok,yok,yok,dusuk,yok,yuksek,yok,4_5_Milyon_TL_Arasi
Afyonkarahisar,Emirdag,Satilik,6_10_arasi,bilinmiyor,Klima,bilinmiyor,yok,var,yok,var,yok,var,var,var,var,yok,var,var,yok,var,yok,yok,yok,yok,yok,yok,yok,yok,yok,yok,yok,yok,yok,yok,yok,yok,kademe_4,normal,bilinmiyor,bilinmiyor,125_150_m2,4_oda,alcak_1_3_kat,2_banyo,yok,yok,yok,dusuk,yok,yuksek,yok,4_5_Milyon_TL_Arasi
Aksaray,Merkez,Satilik,11_15_arasi,Bahce,Kombi,bilinmiyor,yok,var,yok,yok,yok,var,var,var,var,yok,var,yok,yok,yok,yok,yok,yok,yok,yok,yok,yok,yok,yok,yok,yok,yok,yok,yok,yok,yok,kademe_4,normal,bilinmiyor,kotu,125_150_m2,3_oda,bilinmiyor,1_banyo,yok,dusuk,dusuk,yok,yuksek,orta,yok,5_7_Bucuk_Milyon_TL_Arasi
Artvin,Merkez,Satilik,11_15_arasi,Ara_Kat,Kombi_Dogalgaz,bilinmiyor,yok,var,var,var,yok,yok,var,var,var,yok,yok,yok,yok,yok,yok,yok,yok,yok,yok,yok,yok,yok,yok,yok,yok,yok,yok,yok,yok,yok,kademe_4,kotu,bilinmiyor,kotu,125_150_m2,4_oda,yuksek_8_15_kat,1_banyo,yok,yok,yok,dusuk,yok,yok,yok,3_4_Milyon_TL_Arasi
Amasya,Merzifon,Satilik,6_10_arasi,Zemin,Kombi,bilinmiyor,yok,var,yok,yok,yok,yok,yok,var,yok,yok,yok,yok,yok,yok,yok,yok,yok,yok,yok,yok,yok,yok,yok,yok,yok,yok,yok,yok,yok,yok,kademe_4,kotu,normal,normal,75_100_m2,2_oda,orta_4_7_kat,1_banyo,yok,yok,yok,dusuk,yok,yok,yok,1_5_2_Milyon_TL_Arasi
Afyonkarahisar,Merkez,Satilik,0,Ara_Kat,Kombi_Dogalgaz,bilinmiyor,yok,var,var,var,yok,var,yok,var,yok,yok,var,var,yok,var,yok,yok,yok,yok,yok,var,yok,yok,yok,yok,yok,yok,yok,yok,yok,yok,kademe_4,normal,bilinmiyor,bilinmiyor,150_200_m2,5_oda,yuksek_8_15_kat,2_banyo,dusuk,yok,yok,dusuk,yok,yuksek,yok,5_7_Bucuk_Milyon_TL_Arasi
Afyonkarahisar,Merkez,Satilik,6_10_arasi,En_Ust_Kat,Kombi_Dogalgaz,bilinmiyor,yok,var,yok,yok,yok,var,yok,var,yok,yok,var,yok,yok,var,yok,yok,yok,yok,yok,yok,yok,yok,yok,yok,yok,yok,yok,yok,yok,yok,kademe_4,kotu,bilinmiyor,bilinmiyor,125_150_m2,4_oda,orta_4_7_kat,1_banyo,yok,yok,yok,dusuk,yok,orta,yok,3_4_Milyon_TL_Arasi
Amasya,Merzifon,Satilik,26_30_arasi,Bahce,Soba,bilinmiyor,yok,var,yok,yok,yok,yok,var,var,var,yok,yok,yok,yok,yok,yok,yok,yok,yok,yok,yok,yok,yok,yok,yok,yok,yok,yok,yok,yok,yok,kademe_4,bilinmiyor,bilinmiyor,bilinmiyor,300_m2_ve_ustu,3_oda,bilinmiyor,1_banyo,yok,yok,yok,dusuk,yok,yok,yok,1_5_2_Milyon_TL_Arasi
Afyonkarahisar,Merkez,Satilik,16_20_arasi,2,Kombi,bilinmiyor,yok,var,yok,var,yok,var,var,var,yok,yok,var,yok,yok,yok,yok,yok,yok,yok,yok,yok,yok,yok,yok,yok,yok,var,yok,yok,yok,yok,kademe_4,kotu,bilinmiyor,bilinmiyor,125_150_m2,4_oda,orta_4_7_kat,1_banyo,yok,yok,dusuk,orta,yuksek,yuksek,yok,4_5_Milyon_TL_Arasi
Aksaray,Merkez,Satilik,0,3,Yerden_Isitma,bilinmiyor,yok,var,var,yok,yok,yok,yok,yok,yok,yok,yok,yok,yok,yok,yok,yok,yok,yok,yok,yok,yok,yok,yok,yok,yok,yok,yok,yok,yok,yok,kademe_4,kotu,bilinmiyor,bilinmiyor,100_125_m2,3_oda,orta_4_7_kat,1_banyo,yok,yok,yok,yok,yok,yok,yok,3_4_Milyon_TL_Arasi
Aksaray,Merkez,Satilik,6_10_arasi,Yuksek_Giris,Merkezi,bilinmiyor,yok,var,yok,var,yok,yok,yok,yok,yok,yok,yok,yok,yok,yok,yok,yok,yok,yok,yok,yok,yok,yok,yok,yok,yok,yok,yok,yok,yok,yok,kademe_4,kotu,kotu,kotu,50_75_m2,2_oda,orta_4_7_kat,1_banyo,yok,yok,yok,dusuk,yok,yok,yok,1_5_Milyon_TL_Alti
Amasya,Merkez,Satilik,11_15_arasi,bilinmiyor,Kombi_Dogalgaz,bilinmiyor,yok,var,yok,var,yok,yok,yok,yok,yok,yok,var,yok,yok,yok,yok,yok,yok,yok,yok,yok,yok,yok,yok,yok,yok,yok,yok,var,yok,yok,kademe_4,kotu,kotu,kotu,150_200_m2,4_oda,alcak_1_3_kat,1_banyo,yok,yok,yok,dusuk,yok,yok,yok,7_Bucuk_10_Milyon_TL_Arasi
Kastamonu,Inebolu,Satilik,16_20_arasi,3,Kombi_Dogalgaz,bilinmiyor,yok,yok,yok,yok,yok,yok,yok,var,var,yok,yok,yok,yok,yok,yok,yok,yok,yok,yok,yok,yok,yok,yok,yok,yok,yok,yok,yok,yok,yok,kademe_4,bilinmiyor,bilinmiyor,kotu,125_150_m2,4_oda,orta_4_7_kat,2_banyo,yok,yok,yok,dusuk,yok,yok,yok,4_5_Milyon_TL_Arasi
Afyonkarahisar,Merkez,Satilik,0,1,Kombi,bilinmiyor,yok,var,var,var,yok,yok,var,var,yok,yok,var,yok,yok,var,yok,yok,yok,yok,yok,yok,yok,yok,var,yok,yok,var,yok,yok,yok,yok,kademe_4,bilinmiyor,bilinmiyor,bilinmiyor,100_125_m2,4_oda,orta_4_7_kat,2_banyo,yok,dusuk,yok,dusuk,orta,yuksek,yok,4_5_Milyon_TL_Arasi
Amasya,Merzifon,Satilik,21_25_arasi,4,Kombi_Dogalgaz,bilinmiyor,yok,yok,var,yok,yok,var,var,yok,yok,yok,yok,yok,yok,yok,yok,yok,yok,yok,yok,yok,yok,yok,yok,yok,yok,yok,yok,yok,yok,yok,kademe_4,normal,bilinmiyor,bilinmiyor,125_150_m2,4_oda,orta_4_7_kat,1_banyo,yok,yok,yok,dusuk,yok,yok,yok,1_5_2_Milyon_TL_Arasi
Amasya,Merzifon,Satilik,26_30_arasi,2,Kombi_Dogalgaz,bilinmiyor,yok,var,yok,var,yok,var,yok,var,yok,yok,yok,yok,yok,yok,yok,yok,yok,yok,yok,yok,yok,yok,yok,yok,yok,var,yok,yok,yok,yok,kademe_4,normal,kotu,bilinmiyor,125_150_m2,4_oda,orta_4_7_kat,1_banyo,yok,yok,yok,dusuk,dusuk,orta,yok,2_3_Milyon_TL_Arasi
Amasya,Merzifon,Satilik,0,1,Kombi_Dogalgaz,bilinmiyor,yok,yok,yok,yok,var,var,yok,var,yok,yok,yok,yok,yok,yok,yok,yok,yok,yok,yok,yok,yok,yok,yok,yok,yok,yok,yok,yok,yok,yok,kademe_4,iyi,normal,kotu,100_125_m2,3_oda,orta_4_7_kat,1_banyo,yok,yok,yok,dusuk,yok,yok,yok,2_3_Milyon_TL_Arasi
Kirsehir,Merkez,Satilik,26_30_arasi,1,bilinmiyor,bilinmiyor,yok,yok,yok,yok,yok,yok,yok,yok,yok,yok,yok,yok,yok,yok,yok,yok,yok,yok,yok,yok,yok,yok,yok,yok,yok,yok,yok,yok,yok,yok,kademe_4,bilinmiyor,bilinmiyor,bilinmiyor,200_300_m2,4_oda,alcak_1_3_kat,1_banyo,yok,yok,yok,dusuk,yok,yok,yok,5_7_Bucuk_Milyon_TL_Arasi
Amasya,Merzifon,Satilik,0,Yuksek_Giris,Yerden_Isitma,bilinmiyor,yok,var,yok,var,yok,yok,var,var,yok,yok,var,yok,yok,var,yok,yok,yok,yok,yok,yok,yok,yok,var,yok,yok,var,yok,yok,yok,yok,kademe_4,iyi,normal,bilinmiyor,75_100_m2,2_oda,orta_4_7_kat,1_banyo,yok,yok,dusuk,dusuk,yuksek,yuksek,yok,2_3_Milyon_TL_Arasi
Aksaray,Merkez,Satilik,0,3,Kombi_Dogalgaz,bilinmiyor,yok,var,yok,yok,yok,var,var,var,yok,yok,yok,yok,yok,yok,yok,yok,yok,yok,yok,yok,yok,yok,yok,yok,yok,yok,yok,yok,yok,yok,kademe_4,iyi,normal,bilinmiyor,150_200_m2,4_oda,orta_4_7_kat,1_banyo,yok,yok,yok,dusuk,yok,yok,yok,5_7_Bucuk_Milyon_TL_Arasi
Aksaray,Merkez,Satilik,0,2,Kombi,bilinmiyor,yok,var,yok,yok,yok,yok,yok,yok,yok,yok,yok,yok,yok,yok,yok,yok,yok,yok,yok,yok,yok,yok,yok,yok,yok,yok,yok,yok,yok,yok,kademe_4,kotu,bilinmiyor,bilinmiyor,0_50_m2,2_oda,orta_4_7_kat,1_banyo,yok,yok,yok,dusuk,yok,yok,yok,1_5_Milyon_TL_Alti
Amasya,Merzifon,Satilik,0,Ara_Kat,Kombi_Dogalgaz,bilinmiyor,yok,var,var,var,yok,var,var,yok,yok,yok,var,yok,yok,var,yok,yok,yok,yok,yok,yok,yok,yok,yok,yok,yok,var,yok,yok,yok,yok,kademe_4,iyi,normal,iyi,50_75_m2,2_oda,orta_4_7_kat,1_banyo,dusuk,yok,yok,dusuk,yok,yuksek,yok,2_3_Milyon_TL_Arasi
Aksaray,Merkez,Satilik,16_20_arasi,1,Kombi,bilinmiyor,yok,var,yok,var,yok,yok,yok,yok,yok,yok,yok,yok,yok,yok,yok,yok,yok,yok,yok,yok,yok,yok,yok,yok,yok,yok,yok,yok,yok,yok,kademe_4,normal,normal,bilinmiyor,150_200_m2,4_oda,orta_4_7_kat,1_banyo,yok,yok,yok,yok,yok,yok,yok,3_4_Milyon_TL_Arasi
Aksaray,Merkez,Satilik,0,2,Kombi_Dogalgaz,bilinmiyor,yok,var,var,yok,yok,var,var,var,yok,yok,yok,yok,yok,yok,yok,yok,yok,yok,yok,yok,yok,yok,yok,yok,yok,yok,yok,yok,yok,yok,kademe_4,kotu,bilinmiyor,kotu,100_125_m2,3_oda,orta_4_7_kat,1_banyo,yok,yok,yok,dusuk,yok,yok,yok,4_5_Milyon_TL_Arasi
Elazig,Merkez,Satilik,11_15_arasi,4,Kombi,bilinmiyor,yok,var,yok,var,yok,yok,var,var,yok,yok,yok,yok,yok,yok,yok,yok,yok,yok,yok,yok,yok,yok,yok,yok,yok,var,yok,yok,yok,yok,kademe_4,kotu,bilinmiyor,bilinmiyor,125_150_m2,4_oda,orta_4_7_kat,1_banyo,yok,yok,yok,dusuk,orta,yuksek,yok,2_3_Milyon_TL_Arasi
Aksaray,Merkez,Satilik,0,Yuksek_Giris,Kombi,bilinmiyor,yok,var,yok,yok,yok,yok,yok,yok,yok,yok,yok,yok,yok,yok,yok,yok,yok,yok,yok,yok,yok,yok,yok,yok,yok,yok,yok,yok,yok,yok,kademe_4,bilinmiyor,iyi,bilinmiyor,125_150_m2,4_oda,orta_4_7_kat,1_banyo,yok,yok,yok,dusuk,yok,yok,yok,3_4_Milyon_TL_Arasi
Elazig,Merkez,Satilik,0,2,Kombi_Dogalgaz,bilinmiyor,yok,yok,yok,yok,yok,yok,yok,yok,yok,yok,yok,yok,yok,yok,yok,yok,yok,yok,yok,yok,yok,yok,yok,yok,yok,yok,yok,yok,yok,yok,kademe_4,iyi,normal,normal,150_200_m2,4_oda,yuksek_8_15_kat,2_banyo,yok,yok,yok,dusuk,yok,yok,yok,5_7_Bucuk_Milyon_TL_Arasi
Elazig,Merkez,Satilik,0,Yuksek_Giris,Kombi_Dogalgaz,bilinmiyor,yok,yok,yok,var,yok,yok,yok,yok,yok,yok,yok,yok,yok,yok,yok,yok,yok,yok,yok,yok,yok,yok,yok,yok,yok,yok,yok,yok,yok,yok,kademe_4,iyi,iyi,normal,50_75_m2,2_oda,orta_4_7_kat,1_banyo,yok,yok,yok,dusuk,yok,yok,yok,2_3_Milyon_TL_Arasi
Amasya,Merzifon,Satilik,0,3,Kombi_Dogalgaz,bilinmiyor,yok,yok,yok,yok,yok,var,yok,yok,yok,yok,yok,yok,yok,yok,yok,yok,yok,yok,yok,yok,yok,yok,yok,yok,yok,yok,yok,yok,yok,yok,kademe_4,iyi,normal,iyi,50_75_m2,2_oda,orta_4_7_kat,1_banyo,yok,yok,yok,dusuk,yok,yok,yok,1_5_2_Milyon_TL_Arasi
Amasya,Merkez,Satilik,21_25_arasi,Giris,Kombi,bilinmiyor,yok,var,yok,var,yok,var,var,yok,yok,yok,var,var,yok,yok,yok,yok,yok,yok,yok,yok,yok,yok,var,yok,yok,var,yok,yok,yok,yok,kademe_4,kotu,normal,kotu,125_150_m2,4_oda,orta_4_7_kat,2_banyo,yok,yok,yok,dusuk,orta,yuksek,yok,2_3_Milyon_TL_Arasi
Amasya,Merzifon,Satilik,6_10_arasi,3,Kombi,bilinmiyor,yok,var,var,yok,yok,var,yok,yok,var,yok,var,yok,yok,yok,yok,yok,yok,yok,yok,yok,yok,yok,yok,yok,yok,var,yok,yok,yok,yok,kademe_4,bilinmiyor,normal,bilinmiyor,125_150_m2,5_oda,orta_4_7_kat,1_banyo,dusuk,yok,yok,dusuk,yok,yuksek,yok,3_4_Milyon_TL_Arasi
Kirsehir,Merkez,Satilik,26_30_arasi,2,Kombi_Dogalgaz,bilinmiyor,yok,yok,yok,var,yok,yok,yok,yok,yok,yok,yok,yok,yok,yok,yok,yok,yok,yok,yok,yok,yok,yok,yok,yok,yok,yok,yok,yok,yok,yok,kademe_4,iyi,bilinmiyor,iyi,125_150_m2,4_oda,orta_4_7_kat,1_banyo,yok,yok,yok,dusuk,yok,yok,yok,4_5_Milyon_TL_Arasi
Amasya,Merkez,Satilik,31_ve_uzeri,bilinmiyor,Soba,bilinmiyor,yok,yok,yok,yok,yok,var,var,yok,yok,yok,yok,yok,yok,yok,yok,yok,yok,yok,yok,yok,yok,yok,yok,yok,yok,var,yok,yok,yok,yok,kademe_4,kotu,bilinmiyor,bilinmiyor,150_200_m2,7_oda_ve_ustu,alcak_1_3_kat,2_banyo,yok,yok,yok,dusuk,yok,orta,yok,2_3_Milyon_TL_Arasi
Amasya,Merkez,Satilik,16_20_arasi,2,Kombi,bilinmiyor,yok,var,yok,var,yok,yok,yok,yok,yok,yok,yok,yok,yok,yok,yok,yok,yok,yok,yok,yok,yok,yok,yok,yok,yok,yok,yok,yok,yok,yok,kademe_4,normal,normal,bilinmiyor,125_150_m2,4_oda,orta_4_7_kat,1_banyo,yok,yok,yok,yok,yok,yok,yok,3_4_Milyon_TL_Arasi
Aksaray,Merkez,Satilik,6_10_arasi,Ara_Kat,Yerden_Isitma,bilinmiyor,yok,var,var,var,yok,yok,yok,yok,var,yok,var,yok,yok,yok,yok,yok,yok,yok,yok,yok,yok,yok,yok,yok,yok,yok,yok,yok,yok,yok,kademe_4,iyi,kotu,normal,150_200_m2,4_oda,orta_4_7_kat,1_banyo,dusuk,yok,yok,dusuk,orta,yuksek,yok,4_5_Milyon_TL_Arasi
Amasya,Merzifon,Satilik,26_30_arasi,bilinmiyor,Kombi_Dogalgaz,bilinmiyor,yok,var,yok,yok,yok,var,var,yok,yok,yok,var,yok,yok,yok,yok,yok,yok,yok,yok,yok,yok,yok,yok,yok,yok,var,yok,yok,yok,yok,kademe_4,kotu,kotu,kotu,150_200_m2,4_oda,alcak_1_3_kat,1_banyo,yok,dusuk,yok,dusuk,yok,yuksek,yok,2_3_Milyon_TL_Arasi
Aksaray,Merkez,Satilik,0,Yuksek_Giris,Kombi,bilinmiyor,yok,var,var,var,var,var,yok,yok,yok,yok,yok,yok,yok,yok,yok,yok,yok,yok,yok,yok,yok,yok,yok,yok,yok,yok,yok,yok,yok,yok,kademe_4,normal,bilinmiyor,iyi,100_125_m2,3_oda,orta_4_7_kat,1_banyo,yok,yok,yok,yok,yok,yok,yok,3_4_Milyon_TL_Arasi
Artvin,Savsat,Satilik,1_5_arasi,3,Kombi,bilinmiyor,yok,var,yok,yok,yok,yok,yok,yok,yok,yok,yok,yok,yok,yok,yok,yok,yok,yok,yok,yok,yok,yok,yok,yok,yok,yok,yok,yok,yok,yok,kademe_4,kotu,bilinmiyor,bilinmiyor,300_m2_ve_ustu,5_oda,orta_4_7_kat,3_banyo_ve_ustu,yok,yok,yok,dusuk,yok,yok,yok,10_Milyon_TL_Ustu
Kirsehir,Merkez,Satilik,1_5_arasi,Yuksek_Giris,Kombi_Dogalgaz,bilinmiyor,yok,yok,yok,yok,yok,var,var,var,yok,yok,yok,yok,yok,yok,yok,yok,yok,yok,yok,yok,yok,yok,yok,yok,yok,yok,yok,yok,yok,yok,kademe_4,kotu,normal,bilinmiyor,100_125_m2,4_oda,orta_4_7_kat,1_banyo,yok,yok,yok,dusuk,yok,yok,yok,2_3_Milyon_TL_Arasi
Amasya,Merkez,Satilik,21_25_arasi,5,Kombi_Dogalgaz,bilinmiyor,yok,var,yok,yok,yok,yok,yok,yok,var,yok,var,yok,yok,yok,yok,yok,yok,yok,yok,yok,yok,yok,yok,yok,yok,yok,yok,yok,yok,yok,kademe_4,normal,normal,kotu,100_125_m2,4_oda,orta_4_7_kat,1_banyo,yok,yok,yok,dusuk,dusuk,yok,yok,2_3_Milyon_TL_Arasi
Amasya,Merzifon,Satilik,21_25_arasi,2,Kombi_Dogalgaz,bilinmiyor,yok,yok,yok,yok,yok,var,var,var,var,yok,yok,yok,yok,yok,yok,yok,yok,yok,yok,yok,yok,yok,yok,yok,yok,yok,yok,yok,yok,yok,kademe_4,normal,bilinmiyor,iyi,150_200_m2,4_oda,orta_4_7_kat,1_banyo,yok,yok,yok,dusuk,yok,yok,yok,3_4_Milyon_TL_Arasi
Amasya,Merkez,Satilik,11_15_arasi,Giris,Kombi_Dogalgaz,bilinmiyor,yok,var,var,var,yok,yok,yok,var,var,yok,var,yok,yok,var,yok,yok,yok,yok,yok,yok,yok,yok,yok,yok,yok,yok,yok,yok,yok,yok,kademe_4,bilinmiyor,bilinmiyor,kotu,150_200_m2,4_oda,orta_4_7_kat,1_banyo,dusuk,yok,yok,dusuk,yok,yuksek,yok,3_4_Milyon_TL_Arasi
Amasya,Merzifon,Satilik,6_10_arasi,Giris,Kombi_Dogalgaz,bilinmiyor,yok,yok,var,var,var,yok,yok,var,yok,yok,var,yok,yok,yok,yok,yok,yok,yok,yok,yok,yok,yok,yok,yok,yok,yok,yok,yok,yok,yok,kademe_4,kotu,normal,bilinmiyor,50_75_m2,2_oda,orta_4_7_kat,1_banyo,dusuk,yok,dusuk,dusuk,orta,orta,yok,1_5_2_Milyon_TL_Arasi
Amasya,Merzifon,Satilik,21_25_arasi,Giris,Kombi,bilinmiyor,yok,var,yok,var,yok,yok,yok,yok,yok,yok,yok,yok,yok,yok,yok,yok,yok,yok,yok,yok,yok,yok,yok,yok,yok,var,yok,yok,yok,yok,kademe_4,iyi,kotu,normal,100_125_m2,3_oda,alcak_1_3_kat,1_banyo,yok,yok,yok,dusuk,orta,dusuk,yok,1_5_2_Milyon_TL_Arasi
Amasya,Merkez,Satilik,11_15_arasi,3,Kombi,bilinmiyor,yok,yok,yok,var,yok,yok,yok,yok,yok,yok,yok,yok,yok,yok,yok,yok,yok,yok,yok,yok,yok,yok,yok,yok,yok,yok,yok,yok,yok,yok,kademe_4,bilinmiyor,kotu,kotu,75_100_m2,3_oda,orta_4_7_kat,1_banyo,yok,yok,yok,dusuk,yok,yok,yok,1_5_Milyon_TL_Alti
Amasya,Merkez,Satilik,0,3,Kombi,bilinmiyor,yok,var,yok,var,yok,yok,yok,yok,yok,yok,var,yok,yok,var,yok,yok,yok,yok,yok,yok,yok,yok,yok,yok,yok,yok,yok,yok,yok,yok,kademe_4,normal,normal,kotu,50_75_m2,2_oda,orta_4_7_kat,1_banyo,yok,yok,yok,dusuk,orta,orta,yok,2_3_Milyon_TL_Arasi
Afyonkarahisar,Merkez,Satilik,11_15_arasi,2,Jeotermal,bilinmiyor,yok,var,var,var,yok,yok,yok,yok,yok,yok,yok,yok,yok,yok,yok,yok,yok,yok,yok,yok,yok,yok,yok,yok,yok,yok,yok,yok,yok,yok,kademe_4,normal,normal,normal,125_150_m2,4_oda,orta_4_7_kat,2_banyo,yok,yok,yok,yok,yok,yok,yok,5_7_Bucuk_Milyon_TL_Arasi
Afyonkarahisar,Merkez,Satilik,16_20_arasi,2,Kombi,bilinmiyor,yok,var,yok,var,yok,var,var,yok,yok,yok,var,yok,yok,var,yok,yok,yok,yok,yok,yok,yok,yok,yok,yok,yok,var,yok,yok,yok,yok,kademe_4,normal,normal,kotu,100_125_m2,3_oda,orta_4_7_kat,1_banyo,yok,yok,dusuk,orta,orta,yuksek,yok,2_3_Milyon_TL_Arasi
Kastamonu,Inebolu,Satilik,0,4,Kombi_Dogalgaz,bilinmiyor,yok,yok,var,yok,yok,yok,yok,yok,yok,yok,yok,yok,yok,yok,yok,yok,yok,yok,yok,yok,yok,yok,yok,yok,yok,yok,yok,yok,yok,yok,kademe_4,bilinmiyor,bilinmiyor,bilinmiyor,100_125_m2,3_oda,orta_4_7_kat,1_banyo,yok,yok,yok,dusuk,yok,yok,yok,4_5_Milyon_TL_Arasi
Elazig,Merkez,Satilik,1_5_arasi,1,Merkezi,bilinmiyor,yok,var,var,var,yok,yok,yok,yok,yok,yok,yok,yok,yok,yok,yok,yok,yok,yok,yok,yok,yok,yok,yok,yok,yok,yok,yok,yok,yok,yok,kademe_4,iyi,iyi,bilinmiyor,100_125_m2,3_oda,orta_4_7_kat,1_banyo,yok,yok,yok,dusuk,yok,yok,yok,2_3_Milyon_TL_Arasi
Elazig,Merkez,Satilik,1_5_arasi,7,Kombi_Dogalgaz,bilinmiyor,yok,var,var,var,yok,yok,var,var,var,yok,var,var,yok,yok,yok,yok,yok,yok,yok,yok,yok,yok,yok,yok,yok,var,yok,yok,yok,yok,kademe_4,iyi,normal,iyi,150_200_m2,4_oda,yuksek_8_15_kat,2_banyo,dusuk,yok,yok,dusuk,dusuk,yuksek,yok,5_7_Bucuk_Milyon_TL_Arasi
Amasya,Gumushacikoy,Satilik,26_30_arasi,bilinmiyor,Kombi_Dogalgaz,bilinmiyor,yok,yok,yok,yok,yok,yok,yok,var,yok,yok,yok,yok,yok,yok,yok,yok,yok,yok,yok,yok,yok,yok,yok,yok,yok,yok,yok,yok,yok,yok,kademe_4,kotu,kotu,bilinmiyor,100_125_m2,5_oda,alcak_1_3_kat,1_banyo,yok,yok,yok,dusuk,yok,yok,yok,4_5_Milyon_TL_Arasi
Amasya,Merzifon,Satilik,11_15_arasi,5,Kombi_Dogalgaz,bilinmiyor,yok,var,var,var,yok,var,var,yok,var,yok,var,var,yok,yok,yok,yok,yok,yok,yok,yok,yok,yok,yok,yok,yok,var,yok,yok,yok,yok,kademe_4,normal,kotu,normal,150_200_m2,4_oda,orta_4_7_kat,2_banyo,dusuk,yok,yok,dusuk,orta,yuksek,yok,4_5_Milyon_TL_Arasi
Artvin,Merkez,Satilik,16_20_arasi,Giris,Kombi_Dogalgaz,bilinmiyor,yok,var,var,var,var,yok,yok,yok,yok,yok,yok,yok,yok,yok,yok,yok,yok,yok,yok,yok,yok,yok,yok,yok,yok,yok,yok,yok,yok,yok,kademe_4,normal,normal,normal,100_125_m2,4_oda,yuksek_8_15_kat,1_banyo,yok,yok,yok,yok,yok,yok,yok,3_4_Milyon_TL_Arasi
Amasya,Merzifon,Satilik,16_20_arasi,5,Kombi_Dogalgaz,bilinmiyor,yok,var,var,var,yok,var,var,yok,yok,yok,yok,yok,yok,yok,yok,yok,yok,yok,yok,yok,yok,yok,yok,yok,yok,yok,yok,yok,yok,yok,kademe_4,normal,bilinmiyor,normal,150_200_m2,4_oda,orta_4_7_kat,2_banyo,yok,yok,yok,dusuk,yok,yok,yok,2_3_Milyon_TL_Arasi
Amasya,Gumushacikoy,Satilik,31_ve_uzeri,bilinmiyor,Soba,bilinmiyor,yok,var,yok,yok,yok,yok,yok,var,yok,yok,yok,yok,yok,var,yok,yok,yok,yok,yok,yok,yok,yok,yok,yok,yok,yok,yok,yok,yok,yok,kademe_4,kotu,kotu,kotu,125_150_m2,6_oda,alcak_1_3_kat,2_banyo,yok,yok,yok,dusuk,yok,dusuk,yok,2_3_Milyon_TL_Arasi
Amasya,Merkez,Satilik,6_10_arasi,En_Ust_Kat,Kombi_Dogalgaz,bilinmiyor,yok,var,var,var,yok,yok,var,var,yok,yok,yok,yok,yok,yok,yok,yok,yok,yok,yok,yok,yok,yok,yok,yok,yok,yok,yok,yok,var,yok,kademe_4,normal,bilinmiyor,kotu,150_200_m2,5_oda,orta_4_7_kat,1_banyo,yok,yok,yok,dusuk,yok,yok,yok,5_7_Bucuk_Milyon_TL_Arasi
Amasya,Merkez,Satilik,31_ve_uzeri,Bahce,Kombi,bilinmiyor,yok,var,yok,yok,yok,yok,yok,yok,yok,yok,var,yok,yok,var,yok,yok,yok,yok,yok,yok,yok,yok,yok,yok,yok,yok,yok,yok,yok,yok,kademe_4,kotu,kotu,bilinmiyor,200_300_m2,4_oda,bilinmiyor,2_banyo,dusuk,dusuk,yok,dusuk,orta,yuksek,yok,4_5_Milyon_TL_Arasi
Kirsehir,Merkez,Satilik,21_25_arasi,4,Kombi_Dogalgaz,bilinmiyor,yok,yok,yok,yok,yok,var,var,var,yok,yok,yok,yok,yok,yok,yok,yok,yok,yok,yok,yok,yok,yok,yok,yok,yok,yok,yok,yok,yok,yok,kademe_4,normal,bilinmiyor,normal,125_150_m2,4_oda,orta_4_7_kat,1_banyo,yok,yok,yok,dusuk,yok,yok,yok,2_3_Milyon_TL_Arasi
Amasya,Merzifon,Satilik,0,En_Ust_Kat,Kombi_Dogalgaz,bilinmiyor,yok,yok,var,var,yok,yok,var,var,yok,yok,var,yok,yok,yok,yok,yok,yok,yok,yok,yok,yok,yok,yok,yok,yok,var,yok,yok,yok,yok,kademe_4,normal,iyi,normal,50_75_m2,2_oda,orta_4_7_kat,1_banyo,dusuk,yok,yok,dusuk,dusuk,yuksek,yok,1_5_2_Milyon_TL_Arasi
Afyonkarahisar,Merkez,Satilik,31_ve_uzeri,2,Jeotermal,bilinmiyor,yok,var,yok,yok,yok,yok,var,var,yok,yok,yok,yok,yok,yok,yok,yok,yok,yok,yok,yok,yok,yok,yok,yok,yok,yok,yok,yok,yok,yok,kademe_4,normal,bilinmiyor,kotu,100_125_m2,4_oda,orta_4_7_kat,1_banyo,yok,yok,yok,dusuk,yok,yok,yok,2_3_Milyon_TL_Arasi
Amasya,Merzifon,Satilik,1_5_arasi,3,Kombi,bilinmiyor,yok,var,yok,var,var,var,yok,yok,yok,yok,yok,yok,yok,yok,yok,yok,yok,yok,yok,yok,yok,yok,yok,yok,yok,yok,yok,yok,yok,yok,kademe_4,bilinmiyor,normal,normal,50_75_m2,2_oda,orta_4_7_kat,1_banyo,yok,yok,yok,dusuk,yok,yok,yok,1_5_2_Milyon_TL_Arasi
Amasya,Merkez,Satilik,0,4,Yerden_Isitma,bilinmiyor,yok,var,yok,yok,yok,yok,yok,var,yok,yok,var,yok,yok,var,yok,yok,yok,yok,yok,yok,yok,yok,yok,yok,yok,yok,yok,yok,yok,yok,kademe_4,iyi,bilinmiyor,bilinmiyor,50_75_m2,2_oda,orta_4_7_kat,1_banyo,yok,yok,yok,dusuk,orta,yuksek,yok,2_3_Milyon_TL_Arasi
Kastamonu,Merkez,Satilik,0,4,Yerden_Isitma,bilinmiyor,yok,var,yok,var,yok,var,yok,var,yok,yok,var,yok,yok,yok,yok,yok,yok,yok,yok,yok,yok,yok,yok,yok,yok,yok,yok,yok,yok,yok,kademe_4,bilinmiyor,iyi,bilinmiyor,100_125_m2,4_oda,orta_4_7_kat,1_banyo,dusuk,yok,yok,dusuk,orta,yuksek,yok,7_Bucuk_10_Milyon_TL_Arasi
Aksaray,Merkez,Satilik,0,3,Yerden_Isitma,bilinmiyor,yok,var,var,var,yok,yok,var,var,var,yok,var,yok,yok,yok,yok,yok,yok,yok,yok,yok,yok,yok,yok,yok,yok,var,yok,yok,yok,yok,kademe_4,normal,bilinmiyor,bilinmiyor,0_50_m2,2_oda,orta_4_7_kat,1_banyo,dusuk,yok,dusuk,dusuk,yuksek,yuksek,yok,1_5_2_Milyon_TL_Arasi
Aksaray,Merkez,Satilik,1_5_arasi,5,Kombi,bilinmiyor,yok,var,var,yok,yok,var,yok,var,yok,yok,var,yok,yok,var,yok,yok,yok,yok,yok,yok,yok,yok,yok,yok,yok,var,yok,yok,yok,yok,kademe_4,normal,normal,iyi,150_200_m2,4_oda,orta_4_7_kat,1_banyo,dusuk,yok,dusuk,orta,orta,yuksek,yok,5_7_Bucuk_Milyon_TL_Arasi
Amasya,Merzifon,Satilik,16_20_arasi,3,Kombi_Dogalgaz,bilinmiyor,yok,var,var,yok,yok,var,yok,var,var,yok,yok,yok,yok,var,yok,yok,yok,yok,yok,yok,yok,yok,yok,yok,yok,var,yok,yok,yok,yok,kademe_4,iyi,normal,bilinmiyor,125_150_m2,4_oda,orta_4_7_kat,1_banyo,yok,yok,yok,dusuk,yok,dusuk,yok,2_3_Milyon_TL_Arasi
Kirsehir,Merkez,Satilik,0,4,Kombi,bilinmiyor,yok,var,var,yok,yok,var,var,var,var,yok,var,yok,yok,yok,yok,yok,yok,yok,yok,yok,yok,yok,var,yok,yok,var,yok,yok,yok,yok,kademe_4,bilinmiyor,bilinmiyor,bilinmiyor,125_150_m2,4_oda,orta_4_7_kat,1_banyo,yok,yok,dusuk,dusuk,orta,orta,yok,5_7_Bucuk_Milyon_TL_Arasi
Artvin,Merkez,Satilik,16_20_arasi,6,Kombi,bilinmiyor,yok,yok,yok,yok,yok,yok,yok,yok,yok,yok,yok,yok,yok,yok,yok,yok,yok,yok,yok,yok,yok,yok,yok,yok,yok,yok,yok,yok,yok,yok,kademe_4,kotu,kotu,normal,125_150_m2,4_oda,yuksek_8_15_kat,1_banyo,yok,yok,yok,dusuk,yok,yok,yok,3_4_Milyon_TL_Arasi
Artvin,Kemalpasa,Satilik,26_30_arasi,1,Soba,bilinmiyor,yok,var,yok,yok,yok,yok,yok,yok,yok,yok,yok,yok,yok,yok,yok,yok,yok,yok,yok,yok,yok,yok,yok,yok,yok,yok,yok,yok,yok,yok,kademe_4,bilinmiyor,bilinmiyor,bilinmiyor,100_125_m2,4_oda,orta_4_7_kat,1_banyo,yok,yok,yok,yok,yok,yok,yok,1_5_Milyon_TL_Alti
Aksaray,Merkez,Satilik,0,1,Kombi_Dogalgaz,bilinmiyor,yok,var,var,var,yok,yok,yok,var,yok,yok,var,yok,yok,yok,yok,yok,yok,var,yok,yok,yok,yok,yok,yok,yok,var,yok,yok,yok,yok,kademe_4,iyi,normal,bilinmiyor,150_200_m2,3_oda,orta_4_7_kat,bilinmiyor,dusuk,yok,yok,dusuk,orta,yuksek,yok,4_5_Milyon_TL_Arasi
Amasya,Merkez,Satilik,0,Yuksek_Giris,Yerden_Isitma,bilinmiyor,yok,var,yok,yok,yok,var,var,yok,yok,yok,var,yok,yok,yok,yok,yok,yok,yok,yok,yok,yok,yok,yok,yok,yok,yok,yok,yok,yok,yok,kademe_4,bilinmiyor,bilinmiyor,bilinmiyor,50_75_m2,2_oda,orta_4_7_kat,1_banyo,yok,yok,dusuk,dusuk,orta,orta,yok,2_3_Milyon_TL_Arasi
Aksaray,Merkez,Satilik,0,4,Kombi,bilinmiyor,yok,var,var,var,yok,yok,yok,yok,yok,yok,yok,yok,yok,yok,yok,yok,yok,yok,yok,yok,yok,yok,yok,yok,yok,yok,yok,yok,yok,yok,kademe_4,iyi,iyi,bilinmiyor,100_125_m2,3_oda,orta_4_7_kat,2_banyo,yok,yok,yok,dusuk,yok,yok,yok,3_4_Milyon_TL_Arasi
Aksaray,Guzelyurt,Satilik,31_ve_uzeri,bilinmiyor,Soba,bilinmiyor,yok,yok,yok,yok,yok,yok,yok,yok,yok,yok,yok,yok,yok,yok,yok,yok,yok,yok,yok,yok,yok,yok,yok,yok,yok,yok,yok,yok,yok,yok,kademe_4,bilinmiyor,normal,bilinmiyor,200_300_m2,5_oda,alcak_1_3_kat,1_banyo,yok,yok,yok,dusuk,dusuk,yok,yok,4_5_Milyon_TL_Arasi
Sivas,Merkez,Satilik,26_30_arasi,En_Ust_Kat,Kombi_Dogalgaz,bilinmiyor,yok,var,yok,var,yok,var,var,var,yok,yok,var,yok,yok,yok,yok,yok,yok,yok,yok,yok,yok,yok,yok,yok,yok,var,yok,yok,yok,yok,kademe_4,bilinmiyor,normal,kotu,100_125_m2,3_oda,alcak_1_3_kat,1_banyo,yok,yok,yok,orta,orta,orta,yok,2_3_Milyon_TL_Arasi
Aksaray,Merkez,Satilik,0,3,Kombi,bilinmiyor,yok,var,var,yok,yok,var,var,var,var,yok,var,yok,yok,var,yok,yok,yok,yok,yok,yok,yok,yok,yok,yok,yok,var,yok,yok,yok,yok,kademe_4,iyi,bilinmiyor,normal,125_150_m2,4_oda,orta_4_7_kat,1_banyo,yok,yok,yok,orta,dusuk,yuksek,yok,4_5_Milyon_TL_Arasi
Kirsehir,Mucur,Satilik,16_20_arasi,bilinmiyor,Soba,bilinmiyor,yok,var,yok,yok,var,var,var,var,var,yok,yok,yok,yok,yok,yok,yok,yok,yok,yok,yok,yok,yok,yok,yok,yok,yok,yok,yok,yok,yok,kademe_4,kotu,bilinmiyor,bilinmiyor,300_m2_ve_ustu,4_oda,alcak_1_3_kat,2_banyo,dusuk,yok,yok,orta,orta,orta,yok,2_3_Milyon_TL_Arasi
Aksaray,Merkez,Satilik,0,4,Kombi,bilinmiyor,yok,var,var,var,yok,yok,var,var,yok,yok,yok,yok,yok,yok,yok,yok,yok,yok,yok,yok,yok,yok,yok,yok,yok,yok,yok,yok,yok,yok,kademe_4,kotu,bilinmiyor,kotu,150_200_m2,4_oda,orta_4_7_kat,1_banyo,yok,yok,yok,dusuk,yok,yok,yok,5_7_Bucuk_Milyon_TL_Arasi
Amasya,Merzifon,Satilik,26_30_arasi,3,Kombi_Dogalgaz,bilinmiyor,yok,var,yok,yok,yok,var,var,yok,yok,yok,yok,yok,yok,yok,yok,yok,yok,yok,yok,yok,yok,yok,yok,yok,yok,var,yok,yok,yok,yok,kademe_4,iyi,kotu,bilinmiyor,100_125_m2,3_oda,orta_4_7_kat,1_banyo,yok,yok,yok,dusuk,yok,orta,yok,1_5_2_Milyon_TL_Arasi
Elazig,Merkez,Satilik,0,3,Kombi,bilinmiyor,yok,var,yok,yok,yok,yok,yok,var,var,yok,yok,var,yok,yok,yok,yok,yok,yok,yok,yok,yok,yok,var,yok,yok,yok,yok,yok,yok,yok,kademe_4,iyi,iyi,bilinmiyor,125_150_m2,3_oda,yuksek_8_15_kat,2_banyo,dusuk,yok,dusuk,orta,yuksek,yuksek,yok,4_5_Milyon_TL_Arasi
Elazig,Merkez,Satilik,0,4,Kombi,bilinmiyor,yok,var,var,var,yok,yok,var,yok,var,yok,var,var,yok,yok,yok,yok,yok,yok,yok,yok,yok,yok,yok,yok,yok,yok,yok,yok,yok,yok,kademe_4,kotu,bilinmiyor,iyi,125_150_m2,4_oda,yuksek_8_15_kat,2_banyo,yok,yok,yok,dusuk,orta,orta,yok,4_5_Milyon_TL_Arasi
Amasya,Merkez,Satilik,11_15_arasi,Ara_Kat,Soba,bilinmiyor,yok,var,yok,var,yok,var,yok,var,yok,yok,var,yok,yok,yok,yok,yok,yok,yok,yok,yok,yok,yok,yok,yok,yok,var,yok,yok,yok,yok,kademe_4,kotu,bilinmiyor,bilinmiyor,150_200_m2,4_oda,orta_4_7_kat,1_banyo,yok,yok,yok,dusuk,yok,orta,yok,2_3_Milyon_TL_Arasi
Aksaray,Merkez,Satilik,0,3,Kombi_Dogalgaz,bilinmiyor,yok,yok,var,var,var,yok,var,yok,var,yok,yok,yok,yok,yok,yok,yok,yok,yok,yok,yok,yok,yok,yok,yok,yok,yok,yok,yok,yok,yok,kademe_4,iyi,iyi,iyi,0_50_m2,2_oda,yuksek_8_15_kat,1_banyo,yok,yok,yok,yok,yok,yok,yok,1_5_2_Milyon_TL_Arasi
Amasya,Merzifon,Satilik,0,5,Kombi_Dogalgaz,bilinmiyor,yok,yok,var,var,yok,var,var,var,yok,yok,var,yok,yok,yok,yok,yok,yok,yok,yok,yok,yok,yok,yok,yok,yok,var,yok,yok,yok,yok,kademe_4,kotu,normal,bilinmiyor,100_125_m2,3_oda,orta_4_7_kat,1_banyo,dusuk,dusuk,yok,dusuk,yok,orta,yok,2_3_Milyon_TL_Arasi
Kastamonu,Merkez,Satilik,31_ve_uzeri,Bahce,Kombi,bilinmiyor,yok,var,yok,var,var,var,var,var,yok,yok,yok,yok,yok,yok,yok,yok,yok,yok,yok,yok,yok,yok,var,yok,yok,var,var,yok,yok,yok,kademe_4,bilinmiyor,kotu,bilinmiyor,200_300_m2,5_oda,bilinmiyor,1_banyo,yok,yok,dusuk,orta,yuksek,orta,yok,3_4_Milyon_TL_Arasi
Artvin,Arhavi,Satilik,0,9,Kombi_Dogalgaz,bilinmiyor,yok,yok,yok,yok,yok,yok,yok,yok,yok,yok,yok,yok,yok,yok,yok,yok,yok,yok,yok,yok,yok,yok,yok,yok,yok,yok,yok,yok,yok,yok,kademe_4,normal,bilinmiyor,kotu,100_125_m2,3_oda,yuksek_8_15_kat,1_banyo,yok,yok,yok,dusuk,yok,yok,yok,4_5_Milyon_TL_Arasi
Amasya,Merkez,Satilik,16_20_arasi,3,Soba,bilinmiyor,yok,yok,yok,var,yok,yok,yok,var,var,yok,yok,yok,yok,yok,yok,yok,yok,yok,yok,yok,yok,yok,yok,yok,yok,yok,yok,yok,yok,yok,kademe_4,kotu,bilinmiyor,bilinmiyor,150_200_m2,4_oda,orta_4_7_kat,1_banyo,yok,yok,yok,dusuk,yok,yok,yok,1_5_2_Milyon_TL_Arasi
Amasya,Merzifon,Satilik,0,2,Kombi_Dogalgaz,bilinmiyor,yok,yok,var,yok,yok,var,yok,yok,var,yok,yok,yok,yok,yok,yok,yok,yok,yok,yok,yok,yok,yok,yok,yok,yok,yok,yok,yok,yok,yok,kademe_4,iyi,iyi,iyi,100_125_m2,3_oda,orta_4_7_kat,1_banyo,yok,yok,yok,dusuk,yok,yok,yok,3_4_Milyon_TL_Arasi
Amasya,Merzifon,Satilik,1_5_arasi,1,Kombi,bilinmiyor,yok,yok,yok,yok,var,yok,yok,var,yok,yok,yok,yok,yok,yok,yok,yok,yok,yok,yok,yok,yok,yok,yok,yok,yok,yok,yok,yok,yok,yok,kademe_4,normal,normal,normal,50_75_m2,2_oda,orta_4_7_kat,1_banyo,yok,yok,yok,dusuk,yok,yok,yok,1_5_2_Milyon_TL_Arasi
Amasya,Merzifon,Satilik,1_5_arasi,2,Kombi_Dogalgaz,bilinmiyor,yok,var,var,yok,yok,var,var,yok,yok,yok,yok,yok,yok,var,yok,yok,yok,yok,yok,yok,yok,yok,yok,yok,yok,var,yok,yok,yok,yok,kademe_4,kotu,iyi,normal,75_100_m2,3_oda,orta_4_7_kat,1_banyo,dusuk,yok,yok,dusuk,yok,dusuk,yok,2_3_Milyon_TL_Arasi
Amasya,Merzifon,Satilik,6_10_arasi,2,Kombi_Dogalgaz,bilinmiyor,yok,yok,yok,yok,yok,yok,var,yok,yok,yok,yok,yok,yok,yok,yok,yok,yok,yok,yok,yok,yok,yok,yok,yok,yok,yok,yok,yok,yok,yok,kademe_4,iyi,bilinmiyor,kotu,50_75_m2,2_oda,orta_4_7_kat,1_banyo,yok,yok,yok,dusuk,yok,yok,yok,1_5_2_Milyon_TL_Arasi
Kastamonu,Merkez,Satilik,16_20_arasi,6,Kombi,bilinmiyor,yok,yok,yok,var,yok,yok,yok,var,yok,yok,var,yok,yok,yok,yok,yok,yok,yok,yok,yok,yok,yok,yok,yok,yok,yok,yok,yok,yok,yok,kademe_4,kotu,bilinmiyor,normal,100_125_m2,3_oda,orta_4_7_kat,1_banyo,dusuk,yok,yok,dusuk,yuksek,dusuk,yok,2_3_Milyon_TL_Arasi
Elazig,Merkez,Satilik,0,Giris,Kombi,bilinmiyor,yok,var,yok,var,yok,yok,var,var,yok,yok,yok,yok,yok,yok,yok,yok,yok,yok,yok,yok,yok,yok,yok,yok,yok,yok,yok,yok,yok,yok,kademe_4,normal,normal,bilinmiyor,150_200_m2,4_oda,orta_4_7_kat,2_banyo,yok,yok,yok,dusuk,yok,yok,yok,3_4_Milyon_TL_Arasi
Aksaray,Merkez,Satilik,0,Ara_Kat,Kombi_Dogalgaz,bilinmiyor,yok,yok,yok,yok,yok,var,var,yok,yok,yok,yok,yok,yok,yok,yok,yok,yok,yok,yok,yok,yok,yok,yok,yok,yok,yok,yok,yok,yok,yok,kademe_4,bilinmiyor,bilinmiyor,bilinmiyor,150_200_m2,4_oda,orta_4_7_kat,2_banyo,yok,yok,yok,yok,yok,yok,yok,5_7_Bucuk_Milyon_TL_Arasi
Kastamonu,Merkez,Satilik,31_ve_uzeri,Bahce,Kombi,bilinmiyor,yok,var,yok,yok,yok,var,var,var,var,yok,yok,yok,yok,yok,yok,yok,yok,yok,yok,yok,yok,yok,var,yok,yok,var,yok,yok,yok,yok,kademe_4,bilinmiyor,normal,bilinmiyor,200_300_m2,7_oda_ve_ustu,orta_4_7_kat,2_banyo,yok,yok,yok,dusuk,dusuk,dusuk,yok,1_5_2_Milyon_TL_Arasi
Aksaray,Ortakoy,Satilik,6_10_arasi,1,bilinmiyor,bilinmiyor,yok,var,var,yok,yok,yok,yok,yok,yok,yok,yok,yok,yok,yok,yok,yok,yok,yok,yok,yok,yok,yok,yok,yok,yok,yok,yok,yok,yok,yok,kademe_4,bilinmiyor,bilinmiyor,bilinmiyor,0_50_m2,2_oda,alcak_1_3_kat,1_banyo,yok,yok,yok,dusuk,yok,yok,yok,1_5_Milyon_TL_Alti
Amasya,Suluova,Satilik,0,4,Yerden_Isitma,bilinmiyor,yok,var,yok,yok,yok,yok,yok,yok,yok,yok,yok,yok,yok,yok,yok,yok,yok,yok,yok,yok,yok,yok,yok,yok,yok,yok,yok,yok,yok,yok,kademe_4,iyi,bilinmiyor,bilinmiyor,150_200_m2,4_oda,orta_4_7_kat,2_banyo,yok,yok,yok,dusuk,yok,yok,yok,4_5_Milyon_TL_Arasi
Afyonkarahisar,Merkez,Satilik,16_20_arasi,1,Kombi,bilinmiyor,yok,var,var,var,yok,yok,yok,yok,yok,yok,yok,yok,yok,yok,yok,yok,yok,yok,yok,yok,yok,yok,yok,yok,yok,yok,yok,yok,yok,yok,kademe_4,normal,normal,normal,100_125_m2,4_oda,orta_4_7_kat,1_banyo,yok,yok,yok,dusuk,yok,yok,yok,3_4_Milyon_TL_Arasi
Kastamonu,Merkez,Satilik,0,9,Merkezi,bilinmiyor,yok,var,var,var,yok,var,yok,yok,var,yok,var,var,yok,var,yok,yok,yok,yok,var,yok,yok,yok,var,yok,yok,var,yok,yok,yok,yok,kademe_4,bilinmiyor,iyi,bilinmiyor,125_150_m2,4_oda,cok_yuksek_16_ustu_kat,2_banyo,dusuk,dusuk,dusuk,orta,orta,yuksek,yok,5_7_Bucuk_Milyon_TL_Arasi
Afyonkarahisar,Merkez,Satilik,0,2,Kombi_Dogalgaz,bilinmiyor,yok,var,var,var,yok,yok,var,var,yok,yok,var,yok,yok,var,yok,yok,yok,yok,yok,yok,yok,yok,yok,yok,yok,var,yok,yok,yok,yok,kademe_4,iyi,normal,bilinmiyor,150_200_m2,4_oda,orta_4_7_kat,bilinmiyor,dusuk,yok,yok,orta,orta,yuksek,yok,5_7_Bucuk_Milyon_TL_Arasi
Amasya,Suluova,Satilik,1_5_arasi,4,Kombi,bilinmiyor,yok,var,yok,var,yok,yok,yok,yok,yok,yok,yok,yok,yok,yok,yok,yok,yok,yok,yok,yok,yok,yok,yok,yok,yok,yok,yok,yok,yok,yok,kademe_4,iyi,normal,kotu,125_150_m2,4_oda,orta_4_7_kat,2_banyo,yok,yok,yok,dusuk,yok,yok,yok,3_4_Milyon_TL_Arasi
Artvin,Merkez,Satilik,16_20_arasi,6,Kombi_Dogalgaz,bilinmiyor,yok,yok,yok,yok,yok,yok,var,var,yok,yok,yok,yok,yok,yok,yok,yok,yok,yok,yok,yok,yok,yok,yok,yok,yok,yok,yok,yok,yok,yok,kademe_4,iyi,normal,kotu,125_150_m2,4_oda,orta_4_7_kat,1_banyo,yok,yok,yok,dusuk,yok,yok,yok,5_7_Bucuk_Milyon_TL_Arasi
Kastamonu,Merkez,Satilik,0,4,Kombi,bilinmiyor,yok,yok,var,var,yok,var,var,yok,var,yok,var,yok,yok,var,yok,yok,yok,yok,yok,yok,yok,yok,var,yok,yok,var,yok,yok,yok,yok,kademe_4,bilinmiyor,bilinmiyor,kotu,0_50_m2,2_oda,orta_4_7_kat,1_banyo,dusuk,yok,dusuk,orta,yuksek,yuksek,yok,1_5_2_Milyon_TL_Arasi
Artvin,Arhavi,Satilik,1_5_arasi,8,Kombi_Dogalgaz,bilinmiyor,yok,yok,var,var,yok,yok,yok,var,yok,yok,yok,yok,yok,yok,yok,yok,yok,yok,yok,yok,yok,yok,yok,yok,yok,yok,yok,yok,yok,yok,kademe_4,bilinmiyor,normal,bilinmiyor,125_150_m2,4_oda,yuksek_8_15_kat,2_banyo,yok,yok,yok,dusuk,yok,yok,yok,5_7_Bucuk_Milyon_TL_Arasi
Afyonkarahisar,Merkez,Satilik,0,3,Jeotermal,bilinmiyor,yok,var,var,yok,yok,var,var,var,yok,yok,var,yok,yok,var,yok,yok,yok,yok,yok,yok,yok,yok,yok,yok,yok,var,yok,yok,yok,yok,kademe_4,bilinmiyor,iyi,bilinmiyor,50_75_m2,3_oda,orta_4_7_kat,1_banyo,yok,dusuk,yok,yok,yok,orta,yok,3_4_Milyon_TL_Arasi
Kastamonu,Merkez,Satilik,1_5_arasi,Ara_Kat,Kombi_Dogalgaz,bilinmiyor,yok,var,var,var,yok,var,yok,var,yok,yok,var,var,yok,yok,yok,yok,yok,yok,yok,yok,yok,yok,yok,yok,yok,var,yok,yok,yok,yok,kademe_4,bilinmiyor,bilinmiyor,kotu,125_150_m2,4_oda,orta_4_7_kat,2_banyo,yok,yok,yok,dusuk,yok,yuksek,yok,4_5_Milyon_TL_Arasi
Amasya,Merzifon,Satilik,6_10_arasi,2,Kombi_Dogalgaz,bilinmiyor,yok,yok,yok,yok,yok,var,yok,var,yok,yok,yok,yok,yok,yok,yok,yok,yok,yok,yok,yok,yok,yok,yok,yok,yok,yok,yok,yok,yok,yok,kademe_4,bilinmiyor,iyi,bilinmiyor,150_200_m2,2_oda,orta_4_7_kat,bilinmiyor,yok,yok,yok,dusuk,yok,yok,yok,5_7_Bucuk_Milyon_TL_Arasi
Afyonkarahisar,Merkez,Satilik,1_5_arasi,1,Kombi_Dogalgaz,bilinmiyor,yok,var,var,var,yok,var,var,yok,yok,yok,yok,yok,yok,yok,yok,yok,yok,yok,yok,yok,yok,yok,yok,yok,yok,yok,yok,yok,yok,yok,kademe_4,kotu,normal,normal,100_125_m2,3_oda,orta_4_7_kat,1_banyo,yok,yok,yok,dusuk,yok,dusuk,yok,2_3_Milyon_TL_Arasi
Kastamonu,Merkez,Satilik,6_10_arasi,Giris,Kombi,bilinmiyor,yok,yok,yok,var,yok,var,yok,var,yok,yok,var,yok,yok,var,yok,yok,yok,yok,yok,yok,yok,yok,var,yok,yok,var,yok,var,yok,yok,kademe_4,kotu,normal,bilinmiyor,100_125_m2,4_oda,orta_4_7_kat,1_banyo,dusuk,yok,dusuk,orta,yuksek,yuksek,yok,3_4_Milyon_TL_Arasi
Sivas,Merkez,Satilik,26_30_arasi,5,Kombi,bilinmiyor,yok,var,var,var,yok,var,yok,var,yok,yok,yok,yok,yok,yok,yok,yok,yok,yok,yok,yok,yok,yok,yok,yok,yok,var,yok,yok,yok,yok,kademe_4,iyi,bilinmiyor,bilinmiyor,125_150_m2,4_oda,orta_4_7_kat,1_banyo,yok,yok,yok,yok,yok,dusuk,yok,2_3_Milyon_TL_Arasi
Kirsehir,Merkez,Satilik,0,3,Kombi,bilinmiyor,yok,var,var,yok,yok,yok,yok,yok,yok,yok,yok,yok,yok,yok,yok,yok,yok,yok,yok,yok,yok,yok,yok,yok,yok,yok,yok,yok,yok,yok,kademe_4,kotu,normal,bilinmiyor,150_200_m2,5_oda,orta_4_7_kat,2_banyo,yok,yok,yok,dusuk,yok,yok,yok,4_5_Milyon_TL_Arasi
Amasya,Merkez,Satilik,26_30_arasi,5,Kombi,bilinmiyor,yok,var,var,var,yok,yok,yok,yok,yok,yok,var,yok,yok,var,yok,yok,yok,yok,yok,yok,yok,yok,yok,yok,yok,var,yok,yok,yok,yok,kademe_4,normal,kotu,iyi,125_150_m2,4_oda,orta_4_7_kat,1_banyo,yok,yok,yok,dusuk,orta,yuksek,yok,3_4_Milyon_TL_Arasi
Amasya,Merzifon,Satilik,16_20_arasi,3,Kombi,bilinmiyor,yok,var,yok,var,yok,yok,var,var,yok,yok,yok,yok,yok,yok,yok,yok,yok,yok,yok,yok,yok,yok,yok,yok,yok,yok,yok,yok,yok,yok,kademe_4,normal,kotu,bilinmiyor,125_150_m2,4_oda,orta_4_7_kat,1_banyo,yok,yok,yok,dusuk,yok,yok,yok,2_3_Milyon_TL_Arasi
Amasya,Merkez,Satilik,1_5_arasi,Giris,Kombi,bilinmiyor,yok,var,yok,var,yok,yok,yok,yok,yok,yok,yok,var,yok,yok,yok,yok,yok,yok,yok,yok,yok,yok,var,yok,yok,yok,yok,yok,yok,yok,kademe_4,iyi,normal,bilinmiyor,75_100_m2,3_oda,orta_4_7_kat,2_banyo,yok,yok,yok,dusuk,yok,dusuk,yok,2_3_Milyon_TL_Arasi
Afyonkarahisar,Merkez,Satilik,21_25_arasi,1,Kombi_Dogalgaz,bilinmiyor,yok,var,var,yok,yok,var,yok,var,yok,yok,var,yok,yok,yok,yok,yok,yok,yok,yok,yok,yok,yok,yok,yok,yok,var,yok,yok,yok,yok,kademe_4,normal,normal,iyi,100_125_m2,2_oda,orta_4_7_kat,1_banyo,yok,yok,yok,dusuk,yok,orta,yok,3_4_Milyon_TL_Arasi
Afyonkarahisar,Bolvadin,Satilik,6_10_arasi,1,bilinmiyor,bilinmiyor,yok,var,yok,yok,yok,yok,yok,yok,yok,yok,yok,yok,yok,yok,yok,yok,yok,yok,yok,yok,yok,yok,yok,yok,yok,yok,yok,yok,yok,yok,kademe_4,bilinmiyor,bilinmiyor,bilinmiyor,100_125_m2,4_oda,alcak_1_3_kat,1_banyo,yok,yok,yok,dusuk,yok,yok,yok,3_4_Milyon_TL_Arasi
Sivas,Merkez,Satilik,16_20_arasi,4,Kombi,bilinmiyor,yok,var,var,var,yok,var,var,var,yok,yok,var,yok,yok,var,yok,yok,yok,yok,yok,yok,yok,yok,var,yok,yok,var,yok,yok,yok,yok,kademe_4,kotu,normal,kotu,125_150_m2,4_oda,yuksek_8_15_kat,1_banyo,dusuk,yok,yok,dusuk,orta,yuksek,yok,3_4_Milyon_TL_Arasi
Aksaray,Merkez,Satilik,0,4,Kombi,bilinmiyor,yok,var,var,yok,var,yok,yok,yok,yok,yok,yok,yok,yok,yok,yok,yok,yok,yok,yok,yok,yok,yok,yok,yok,yok,yok,yok,yok,yok,yok,kademe_4,normal,bilinmiyor,bilinmiyor,50_75_m2,2_oda,yuksek_8_15_kat,1_banyo,yok,yok,yok,dusuk,yok,yok,yok,2_3_Milyon_TL_Arasi
Kastamonu,Merkez,Satilik,21_25_arasi,Bahce,Soba,bilinmiyor,yok,var,yok,yok,yok,var,var,var,yok,yok,yok,yok,yok,yok,yok,yok,yok,yok,yok,yok,yok,yok,var,yok,yok,var,yok,yok,yok,yok,kademe_4,bilinmiyor,kotu,bilinmiyor,200_300_m2,6_oda,bilinmiyor,2_banyo,yok,yok,dusuk,dusuk,orta,yuksek,yok,3_4_Milyon_TL_Arasi
Elazig,Merkez,Satilik,6_10_arasi,1,bilinmiyor,bilinmiyor,yok,yok,var,yok,yok,yok,yok,yok,yok,yok,yok,yok,yok,yok,yok,yok,yok,yok,yok,yok,yok,yok,yok,yok,yok,yok,yok,yok,yok,yok,kademe_4,bilinmiyor,bilinmiyor,bilinmiyor,75_100_m2,3_oda,alcak_1_3_kat,1_banyo,yok,yok,yok,dusuk,yok,yok,yok,3_4_Milyon_TL_Arasi
Amasya,Suluova,Satilik,1_5_arasi,Giris,Kombi,bilinmiyor,yok,var,yok,var,yok,yok,yok,yok,yok,yok,yok,yok,yok,yok,yok,yok,yok,yok,yok,yok,yok,yok,yok,yok,yok,yok,yok,yok,yok,yok,kademe_4,iyi,normal,normal,100_125_m2,3_oda,orta_4_7_kat,1_banyo,yok,yok,yok,dusuk,yok,yok,yok,2_3_Milyon_TL_Arasi
Kastamonu,Merkez,Satilik,1_5_arasi,2,Kombi,bilinmiyor,yok,var,var,var,yok,yok,var,yok,yok,yok,var,yok,yok,var,yok,yok,yok,yok,yok,yok,yok,yok,var,yok,yok,yok,yok,yok,yok,yok,kademe_4,bilinmiyor,bilinmiyor,bilinmiyor,50_75_m2,2_oda,orta_4_7_kat,1_banyo,yok,yok,yok,orta,dusuk,orta,yok,2_3_Milyon_TL_Arasi
Kastamonu,Merkez,Satilik,11_15_arasi,5,Kombi,bilinmiyor,yok,var,var,var,yok,var,yok,yok,var,yok,var,yok,yok,var,yok,yok,yok,yok,yok,yok,yok,yok,var,yok,yok,var,yok,yok,yok,yok,kademe_4,normal,normal,bilinmiyor,125_150_m2,4_oda,yuksek_8_15_kat,1_banyo,dusuk,yok,dusuk,dusuk,yuksek,yuksek,yok,4_5_Milyon_TL_Arasi
Amasya,Merzifon,Satilik,0,4,Kombi,bilinmiyor,yok,var,yok,var,yok,yok,var,yok,var,yok,var,yok,yok,var,yok,yok,yok,yok,yok,yok,yok,yok,yok,yok,yok,var,yok,yok,yok,yok,kademe_4,bilinmiyor,bilinmiyor,bilinmiyor,125_150_m2,4_oda,orta_4_7_kat,2_banyo,yok,yok,yok,dusuk,orta,yuksek,yok,3_4_Milyon_TL_Arasi
Kastamonu,Inebolu,Satilik,6_10_arasi,3,Kombi_Dogalgaz,bilinmiyor,yok,var,var,var,yok,yok,yok,yok,var,yok,var,var,yok,var,yok,yok,yok,yok,yok,yok,yok,var,var,yok,yok,yok,yok,yok,yok,yok,kademe_4,kotu,normal,bilinmiyor,125_150_m2,4_oda,orta_4_7_kat,2_banyo,dusuk,yok,dusuk,dusuk,dusuk,orta,yok,5_7_Bucuk_Milyon_TL_Arasi
Elazig,Merkez,Satilik,26_30_arasi,4,Kombi,bilinmiyor,yok,var,yok,yok,yok,var,var,yok,yok,yok,var,yok,yok,yok,yok,yok,yok,yok,yok,yok,yok,yok,yok,yok,yok,var,yok,yok,yok,yok,kademe_4,iyi,kotu,bilinmiyor,125_150_m2,4_oda,orta_4_7_kat,1_banyo,yok,yok,yok,dusuk,yuksek,dusuk,yok,1_5_2_Milyon_TL_Arasi
Amasya,Merzifon,Satilik,6_10_arasi,3,Kombi,bilinmiyor,yok,var,yok,yok,var,yok,var,yok,yok,yok,yok,yok,yok,yok,yok,yok,yok,yok,yok,yok,yok,yok,yok,yok,yok,yok,yok,yok,yok,yok,kademe_4,kotu,normal,kotu,50_75_m2,2_oda,orta_4_7_kat,1_banyo,yok,yok,yok,dusuk,yok,yok,yok,1_5_2_Milyon_TL_Arasi
Amasya,Merzifon,Satilik,6_10_arasi,5,Kombi_Dogalgaz,bilinmiyor,yok,yok,yok,yok,yok,var,var,yok,yok,yok,yok,yok,yok,yok,yok,yok,yok,yok,yok,yok,yok,yok,yok,yok,yok,yok,var,yok,yok,yok,kademe_4,normal,kotu,bilinmiyor,150_200_m2,5_oda,orta_4_7_kat,1_banyo,yok,yok,yok,dusuk,yok,yok,yok,4_5_Milyon_TL_Arasi
Afyonkarahisar,Merkez,Satilik,0,4,Kombi_Dogalgaz,bilinmiyor,yok,var,var,var,yok,var,yok,var,yok,yok,var,yok,yok,var,yok,yok,yok,yok,yok,yok,yok,yok,var,yok,yok,var,yok,yok,yok,yok,kademe_4,iyi,normal,kotu,150_200_m2,4_oda,yuksek_8_15_kat,1_banyo,dusuk,yok,yok,orta,dusuk,yuksek,yok,4_5_Milyon_TL_Arasi
Amasya,Merkez,Satilik,21_25_arasi,Zemin,Kombi_Dogalgaz,bilinmiyor,yok,yok,yok,yok,yok,yok,yok,yok,yok,yok,yok,yok,yok,yok,yok,yok,yok,yok,yok,yok,yok,yok,yok,yok,yok,yok,yok,yok,yok,yok,kademe_4,normal,normal,kotu,100_125_m2,3_oda,orta_4_7_kat,1_banyo,yok,yok,yok,yok,yok,yok,yok,2_3_Milyon_TL_Arasi
Kastamonu,Merkez,Satilik,16_20_arasi,2,Kombi,bilinmiyor,yok,var,yok,var,yok,var,var,var,yok,yok,var,yok,yok,yok,yok,yok,yok,yok,yok,yok,yok,yok,var,yok,yok,var,yok,yok,yok,yok,kademe_4,kotu,bilinmiyor,bilinmiyor,125_150_m2,4_oda,orta_4_7_kat,1_banyo,yok,yok,dusuk,orta,yuksek,yuksek,yok,3_4_Milyon_TL_Arasi
Artvin,Arhavi,Satilik,6_10_arasi,2,Kat_Kaloriferi,bilinmiyor,yok,yok,yok,yok,var,yok,yok,yok,yok,yok,yok,yok,yok,yok,yok,yok,yok,yok,yok,yok,yok,yok,yok,yok,yok,yok,yok,yok,yok,yok,kademe_4,kotu,kotu,kotu,125_150_m2,4_oda,orta_4_7_kat,1_banyo,yok,yok,yok,dusuk,yok,yok,yok,2_3_Milyon_TL_Arasi
Kirsehir,Merkez,Satilik,0,2,Kombi,bilinmiyor,yok,var,var,yok,yok,yok,yok,yok,yok,yok,yok,yok,yok,yok,yok,yok,yok,yok,yok,yok,yok,yok,yok,yok,yok,yok,yok,yok,yok,yok,kademe_4,iyi,normal,normal,100_125_m2,3_oda,orta_4_7_kat,1_banyo,yok,yok,yok,dusuk,yok,yok,yok,4_5_Milyon_TL_Arasi
Amasya,Merkez,Satilik,26_30_arasi,Yuksek_Giris,Kombi_Dogalgaz,bilinmiyor,yok,var,yok,yok,yok,var,var,var,yok,yok,var,yok,yok,yok,yok,yok,yok,yok,yok,yok,yok,yok,yok,yok,yok,yok,yok,yok,yok,yok,kademe_4,iyi,bilinmiyor,kotu,100_125_m2,3_oda,orta_4_7_kat,1_banyo,yok,yok,yok,dusuk,yok,dusuk,yok,2_3_Milyon_TL_Arasi
Amasya,Merzifon,Satilik,6_10_arasi,Bahce,Kombi,bilinmiyor,yok,var,yok,yok,yok,var,var,yok,var,yok,yok,yok,yok,yok,yok,yok,yok,yok,yok,yok,yok,yok,yok,yok,yok,yok,yok,yok,yok,yok,kademe_4,kotu,kotu,bilinmiyor,125_150_m2,3_oda,bilinmiyor,1_banyo,yok,yok,yok,dusuk,yok,yok,yok,5_7_Bucuk_Milyon_TL_Arasi
Amasya,Merkez,Satilik,11_15_arasi,1,Kombi,bilinmiyor,yok,var,var,var,yok,yok,yok,yok,yok,yok,yok,yok,yok,yok,yok,yok,yok,yok,yok,yok,yok,yok,yok,yok,yok,yok,yok,yok,yok,yok,kademe_4,kotu,kotu,bilinmiyor,200_300_m2,5_oda,orta_4_7_kat,3_banyo_ve_ustu,yok,yok,yok,dusuk,yok,yok,yok,5_7_Bucuk_Milyon_TL_Arasi
Aksaray,Merkez,Satilik,0,2,Kombi,bilinmiyor,yok,var,var,yok,yok,var,var,var,var,yok,yok,yok,yok,yok,yok,yok,yok,yok,yok,yok,yok,yok,yok,yok,yok,yok,yok,yok,yok,yok,kademe_4,normal,normal,normal,150_200_m2,4_oda,orta_4_7_kat,2_banyo,yok,yok,yok,dusuk,yok,yok,yok,4_5_Milyon_TL_Arasi
Amasya,Merzifon,Satilik,21_25_arasi,4,Merkezi,bilinmiyor,yok,yok,var,yok,yok,yok,yok,yok,yok,yok,yok,yok,yok,yok,yok,yok,yok,yok,yok,yok,yok,yok,yok,yok,yok,yok,yok,yok,yok,yok,kademe_4,bilinmiyor,bilinmiyor,bilinmiyor,150_200_m2,4_oda,orta_4_7_kat,bilinmiyor,yok,yok,yok,dusuk,yok,yok,yok,2_3_Milyon_TL_Arasi
Amasya,Merkez,Satilik,6_10_arasi,1,Yerden_Isitma,bilinmiyor,yok,var,yok,var,yok,yok,yok,var,yok,yok,var,yok,yok,yok,yok,yok,yok,yok,yok,yok,yok,yok,yok,yok,yok,yok,yok,yok,yok,yok,kademe_4,bilinmiyor,bilinmiyor,bilinmiyor,50_75_m2,2_oda,orta_4_7_kat,1_banyo,yok,yok,dusuk,dusuk,dusuk,orta,yok,1_5_2_Milyon_TL_Arasi
Amasya,Suluova,Satilik,11_15_arasi,2,Kombi,bilinmiyor,yok,var,yok,var,yok,var,var,var,yok,yok,var,yok,yok,yok,yok,yok,yok,yok,yok,yok,yok,yok,yok,yok,yok,var,yok,yok,yok,yok,kademe_4,normal,kotu,bilinmiyor,125_150_m2,4_oda,orta_4_7_kat,1_banyo,yok,yok,dusuk,dusuk,orta,yuksek,yok,3_4_Milyon_TL_Arasi
Aksaray,Merkez,Satilik,1_5_arasi,2,Kombi,bilinmiyor,yok,var,yok,yok,var,yok,var,yok,yok,yok,yok,yok,yok,yok,yok,yok,yok,yok,yok,yok,yok,yok,var,yok,yok,var,yok,yok,yok,yok,kademe_4,kotu,normal,bilinmiyor,50_75_m2,2_oda,orta_4_7_kat,1_banyo,yok,yok,yok,dusuk,yok,dusuk,yok,1_5_2_Milyon_TL_Arasi
Afyonkarahisar,Merkez,Satilik,0,2,Kombi,bilinmiyor,yok,var,var,var,yok,var,var,yok,yok,yok,var,var,yok,yok,yok,yok,yok,yok,yok,yok,yok,yok,yok,yok,yok,var,yok,yok,yok,yok,kademe_4,kotu,normal,kotu,125_150_m2,4_oda,orta_4_7_kat,2_banyo,yok,yok,yok,orta,orta,orta,yok,5_7_Bucuk_Milyon_TL_Arasi
Afyonkarahisar,Merkez,Satilik,0,3,Kombi_Dogalgaz,bilinmiyor,yok,var,var,var,yok,yok,var,yok,var,yok,var,yok,yok,var,yok,yok,yok,yok,yok,yok,yok,yok,var,yok,yok,var,yok,yok,yok,yok,kademe_4,iyi,normal,iyi,150_200_m2,4_oda,yuksek_8_15_kat,1_banyo,dusuk,yok,yok,dusuk,dusuk,yuksek,yok,3_4_Milyon_TL_Arasi
Kirsehir,Merkez,Satilik,26_30_arasi,2,Kombi,bilinmiyor,yok,var,var,var,yok,yok,yok,yok,yok,yok,yok,yok,yok,yok,yok,yok,yok,yok,yok,yok,yok,yok,yok,yok,yok,yok,yok,yok,yok,yok,kademe_4,normal,kotu,normal,125_150_m2,4_oda,orta_4_7_kat,1_banyo,yok,yok,yok,dusuk,yok,yok,yok,2_3_Milyon_TL_Arasi
Afyonkarahisar,Merkez,Satilik,31_ve_uzeri,3,Kombi_Dogalgaz,bilinmiyor,yok,var,yok,yok,yok,var,var,yok,var,yok,yok,yok,yok,yok,yok,yok,yok,yok,yok,yok,yok,yok,yok,yok,yok,yok,yok,yok,yok,yok,kademe_4,normal,kotu,bilinmiyor,75_100_m2,3_oda,orta_4_7_kat,1_banyo,yok,yok,yok,dusuk,yok,yok,yok,2_3_Milyon_TL_Arasi
Amasya,Merzifon,Satilik,0,1,Yerden_Isitma,bilinmiyor,yok,var,var,yok,yok,var,var,var,yok,yok,yok,yok,yok,yok,yok,yok,yok,yok,yok,yok,yok,yok,yok,yok,yok,yok,yok,yok,yok,yok,kademe_4,bilinmiyor,bilinmiyor,bilinmiyor,100_125_m2,3_oda,orta_4_7_kat,2_banyo,yok,yok,yok,dusuk,yok,yok,yok,3_4_Milyon_TL_Arasi
Kastamonu,Inebolu,Satilik,31_ve_uzeri,bilinmiyor,Soba,bilinmiyor,yok,yok,yok,yok,yok,yok,yok,yok,yok,yok,yok,yok,yok,yok,yok,yok,yok,yok,yok,yok,yok,yok,yok,yok,yok,yok,yok,yok,yok,yok,kademe_4,bilinmiyor,bilinmiyor,bilinmiyor,150_200_m2,7_oda_ve_ustu,alcak_1_3_kat,2_banyo,yok,yok,yok,dusuk,dusuk,yok,yok,3_4_Milyon_TL_Arasi
Kastamonu,Merkez,Satilik,6_10_arasi,4,Kombi,bilinmiyor,yok,var,var,var,yok,yok,var,var,yok,yok,var,yok,yok,var,yok,yok,yok,yok,yok,yok,yok,yok,yok,yok,yok,var,yok,yok,yok,yok,kademe_4,bilinmiyor,bilinmiyor,bilinmiyor,75_100_m2,3_oda,orta_4_7_kat,1_banyo,dusuk,yok,yok,orta,dusuk,yuksek,yok,3_4_Milyon_TL_Arasi
Kirsehir,Merkez,Satilik,16_20_arasi,1,Yerden_Isitma,bilinmiyor,yok,yok,yok,yok,var,yok,yok,var,yok,yok,yok,yok,yok,yok,yok,yok,yok,yok,yok,yok,yok,yok,yok,yok,yok,yok,yok,yok,yok,yok,kademe_4,iyi,normal,kotu,150_200_m2,4_oda,orta_4_7_kat,1_banyo,yok,yok,yok,dusuk,orta,orta,yok,2_3_Milyon_TL_Arasi
Amasya,Merzifon,Satilik,1_5_arasi,1,Kombi_Dogalgaz,bilinmiyor,yok,yok,var,var,yok,yok,yok,var,var,yok,yok,yok,yok,yok,yok,yok,yok,yok,yok,yok,yok,yok,yok,yok,yok,yok,yok,yok,yok,yok,kademe_4,normal,normal,bilinmiyor,150_200_m2,4_oda,orta_4_7_kat,2_banyo,yok,yok,yok,dusuk,dusuk,yok,yok,4_5_Milyon_TL_Arasi
Elazig,Merkez,Satilik,6_10_arasi,1,bilinmiyor,bilinmiyor,yok,yok,var,yok,yok,yok,yok,yok,yok,yok,yok,yok,yok,yok,yok,yok,yok,yok,yok,yok,yok,yok,yok,yok,yok,yok,yok,yok,yok,yok,kademe_4,bilinmiyor,bilinmiyor,bilinmiyor,75_100_m2,3_oda,alcak_1_3_kat,1_banyo,yok,yok,yok,dusuk,yok,yok,yok,10_Milyon_TL_Ustu
Aksaray,Merkez,Satilik,0,Yuksek_Giris,Kombi,bilinmiyor,yok,var,var,yok,yok,var,var,var,yok,yok,var,var,yok,var,yok,yok,yok,yok,var,yok,yok,yok,var,yok,yok,var,yok,yok,yok,yok,kademe_4,kotu,normal,bilinmiyor,100_125_m2,3_oda,orta_4_7_kat,1_banyo,dusuk,yok,dusuk,dusuk,yuksek,yuksek,yok,2_3_Milyon_TL_Arasi
Amasya,Suluova,Satilik,0,2,Yerden_Isitma,bilinmiyor,yok,var,yok,var,yok,var,var,var,var,yok,var,var,yok,yok,yok,yok,yok,yok,yok,yok,yok,yok,yok,yok,yok,var,yok,yok,yok,yok,kademe_4,normal,kotu,kotu,125_150_m2,4_oda,orta_4_7_kat,2_banyo,yok,yok,yok,dusuk,orta,yuksek,yok,3_4_Milyon_TL_Arasi
Aksaray,Merkez,Satilik,0,Bahce,Kombi,bilinmiyor,yok,var,yok,var,yok,var,var,var,var,yok,var,var,yok,var,yok,yok,yok,yok,yok,yok,yok,yok,yok,yok,yok,var,var,yok,yok,yok,kademe_4,iyi,normal,iyi,300_m2_ve_ustu,5_oda,alcak_1_3_kat,2_banyo,yok,dusuk,yok,dusuk,dusuk,yuksek,yok,10_Milyon_TL_Ustu
Aksaray,Merkez,Satilik,0,Yuksek_Giris,Kombi_Dogalgaz,bilinmiyor,yok,var,var,yok,var,yok,var,var,yok,yok,yok,yok,yok,yok,yok,yok,yok,yok,yok,yok,yok,yok,yok,yok,yok,var,yok,yok,yok,yok,kademe_4,iyi,normal,bilinmiyor,50_75_m2,2_oda,orta_4_7_kat,1_banyo,yok,yok,yok,dusuk,yok,dusuk,yok,1_5_2_Milyon_TL_Arasi
Kastamonu,Merkez,Satilik,11_15_arasi,1,Kombi,bilinmiyor,yok,var,var,var,yok,yok,yok,var,yok,yok,yok,yok,yok,yok,yok,yok,yok,yok,yok,yok,yok,yok,var,yok,yok,var,yok,yok,yok,yok,kademe_4,kotu,bilinmiyor,bilinmiyor,150_200_m2,4_oda,orta_4_7_kat,1_banyo,dusuk,yok,dusuk,dusuk,orta,yuksek,yok,4_5_Milyon_TL_Arasi
Kastamonu,Merkez,Satilik,6_10_arasi,bilinmiyor,Soba,bilinmiyor,yok,yok,yok,var,yok,yok,var,var,yok,yok,yok,yok,yok,yok,yok,yok,yok,yok,yok,yok,yok,yok,yok,yok,yok,var,yok,yok,yok,yok,kademe_4,bilinmiyor,bilinmiyor,kotu,200_300_m2,7_oda_ve_ustu,orta_4_7_kat,2_banyo,yok,yok,yok,dusuk,orta,yok,yok,3_4_Milyon_TL_Arasi
Elazig,Merkez,Satilik,1_5_arasi,Yuksek_Giris,Merkezi,bilinmiyor,yok,var,var,var,yok,var,yok,yok,var,yok,var,yok,yok,yok,yok,yok,yok,yok,yok,yok,yok,yok,yok,yok,yok,yok,yok,yok,yok,yok,kademe_4,normal,iyi,kotu,125_150_m2,4_oda,orta_4_7_kat,1_banyo,yok,yok,yok,dusuk,yok,dusuk,yok,2_3_Milyon_TL_Arasi
Afyonkarahisar,Merkez,Satilik,11_15_arasi,2,Kombi_Dogalgaz,bilinmiyor,yok,var,yok,yok,yok,yok,var,var,yok,yok,yok,yok,yok,yok,yok,yok,yok,yok,yok,yok,yok,yok,yok,yok,yok,yok,yok,yok,yok,yok,kademe_4,kotu,kotu,kotu,100_125_m2,3_oda,alcak_1_3_kat,1_banyo,yok,yok,yok,dusuk,yok,yok,yok,3_4_Milyon_TL_Arasi
Aksaray,Agacoren,Satilik,31_ve_uzeri,2,Kombi,bilinmiyor,yok,yok,yok,yok,yok,yok,yok,yok,yok,yok,yok,yok,yok,yok,yok,yok,yok,yok,yok,yok,yok,yok,yok,yok,yok,yok,yok,yok,yok,yok,kademe_4,bilinmiyor,bilinmiyor,bilinmiyor,100_125_m2,4_oda,orta_4_7_kat,1_banyo,yok,yok,yok,dusuk,yok,yok,yok,1_5_2_Milyon_TL_Arasi
Amasya,Merzifon,Satilik,1_5_arasi,Kot_3,Kombi_Dogalgaz,bilinmiyor,yok,yok,yok,yok,var,yok,var,var,yok,yok,yok,yok,yok,yok,yok,yok,yok,yok,yok,yok,yok,yok,yok,yok,yok,yok,yok,yok,yok,yok,kademe_4,normal,normal,normal,50_75_m2,2_oda,orta_4_7_kat,1_banyo,yok,yok,yok,dusuk,yok,yok,yok,1_5_2_Milyon_TL_Arasi
Kastamonu,Seydiler,Satilik,0,1,Kombi,bilinmiyor,yok,var,var,var,yok,yok,var,var,yok,yok,yok,yok,yok,var,yok,yok,yok,yok,yok,yok,yok,yok,var,yok,yok,var,yok,yok,yok,yok,kademe_4,normal,bilinmiyor,bilinmiyor,125_150_m2,4_oda,orta_4_7_kat,1_banyo,dusuk,yok,dusuk,orta,orta,yuksek,yok,3_4_Milyon_TL_Arasi
Aksaray,Guzelyurt,Satilik,11_15_arasi,1,Kombi,bilinmiyor,yok,var,yok,var,yok,yok,yok,yok,yok,yok,yok,yok,yok,yok,yok,yok,yok,yok,yok,yok,yok,yok,yok,yok,yok,yok,yok,yok,yok,yok,kademe_4,kotu,normal,kotu,100_125_m2,3_oda,orta_4_7_kat,1_banyo,yok,yok,yok,dusuk,yok,yok,yok,2_3_Milyon_TL_Arasi
Amasya,Merzifon,Satilik,6_10_arasi,5,Kombi_Dogalgaz,bilinmiyor,yok,yok,yok,yok,yok,var,var,yok,yok,yok,yok,yok,yok,yok,yok,yok,yok,yok,yok,yok,yok,yok,yok,yok,yok,yok,var,yok,yok,yok,kademe_4,iyi,bilinmiyor,iyi,300_m2_ve_ustu,7_oda_ve_ustu,orta_4_7_kat,3_banyo_ve_ustu,yok,yok,yok,dusuk,yok,yok,yok,10_Milyon_TL_Ustu
Kirsehir,Merkez,Satilik,16_20_arasi,3,Kombi,bilinmiyor,yok,var,yok,var,yok,var,var,var,yok,yok,yok,yok,yok,yok,yok,yok,yok,yok,yok,yok,yok,yok,yok,yok,yok,yok,yok,yok,yok,yok,kademe_4,kotu,kotu,kotu,125_150_m2,4_oda,orta_4_7_kat,1_banyo,yok,yok,yok,dusuk,yok,yok,yok,1_5_2_Milyon_TL_Arasi
Amasya,Merkez,Satilik,1_5_arasi,2,Kombi,bilinmiyor,yok,yok,yok,var,yok,var,var,var,yok,yok,yok,yok,yok,var,yok,yok,yok,yok,yok,yok,yok,yok,var,yok,yok,var,yok,yok,yok,yok,kademe_4,iyi,normal,kotu,125_150_m2,3_oda,orta_4_7_kat,1_banyo,yok,yok,dusuk,dusuk,yuksek,orta,yok,2_3_Milyon_TL_Arasi
Amasya,Merzifon,Satilik,1_5_arasi,3,Kombi_Dogalgaz,bilinmiyor,yok,var,yok,var,yok,yok,var,var,yok,yok,yok,yok,yok,yok,yok,yok,yok,yok,yok,yok,yok,yok,yok,yok,yok,yok,yok,yok,yok,yok,kademe_4,normal,normal,iyi,75_100_m2,3_oda,orta_4_7_kat,1_banyo,yok,yok,yok,dusuk,yok,yok,yok,2_3_Milyon_TL_Arasi
Amasya,Merzifon,Satilik,26_30_arasi,3,Kombi_Dogalgaz,bilinmiyor,yok,yok,yok,yok,yok,var,var,var,yok,yok,yok,yok,yok,yok,yok,yok,yok,yok,yok,yok,yok,yok,yok,yok,yok,yok,yok,yok,yok,yok,kademe_4,kotu,kotu,normal,100_125_m2,3_oda,orta_4_7_kat,1_banyo,yok,yok,yok,dusuk,yok,yok,yok,1_5_2_Milyon_TL_Arasi
Afyonkarahisar,Merkez,Satilik,6_10_arasi,3,Kombi,bilinmiyor,yok,var,yok,var,yok,var,var,var,yok,yok,var,yok,yok,var,yok,yok,yok,yok,yok,yok,yok,yok,yok,yok,yok,var,yok,yok,yok,yok,kademe_4,kotu,kotu,bilinmiyor,100_125_m2,4_oda,orta_4_7_kat,1_banyo,dusuk,dusuk,dusuk,dusuk,orta,yuksek,yok,3_4_Milyon_TL_Arasi
Kastamonu,Merkez,Satilik,1_5_arasi,Ara_Kat,Merkezi,bilinmiyor,yok,var,var,var,yok,yok,yok,yok,yok,yok,yok,yok,yok,yok,yok,yok,yok,yok,yok,yok,yok,yok,var,yok,yok,yok,yok,yok,yok,yok,kademe_4,iyi,iyi,iyi,50_75_m2,2_oda,yuksek_8_15_kat,1_banyo,dusuk,yok,yok,dusuk,yok,yuksek,yok,2_3_Milyon_TL_Arasi
Kastamonu,Merkez,Satilik,6_10_arasi,6,Kombi,bilinmiyor,yok,var,var,var,yok,yok,yok,yok,yok,yok,yok,yok,yok,yok,yok,yok,yok,yok,yok,yok,yok,yok,yok,yok,yok,yok,yok,yok,yok,yok,kademe_4,kotu,kotu,bilinmiyor,200_300_m2,7_oda_ve_ustu,orta_4_7_kat,2_banyo,yok,yok,yok,dusuk,yok,yok,yok,7_Bucuk_10_Milyon_TL_Arasi
Kirsehir,Merkez,Satilik,6_10_arasi,3,Kombi,bilinmiyor,yok,var,yok,yok,yok,yok,yok,yok,yok,yok,yok,yok,yok,yok,yok,yok,yok,yok,yok,yok,yok,yok,yok,yok,yok,yok,yok,yok,yok,yok,kademe_4,normal,normal,normal,125_150_m2,4_oda,orta_4_7_kat,1_banyo,yok,yok,yok,dusuk,yok,yok,yok,3_4_Milyon_TL_Arasi
Amasya,Merzifon,Satilik,6_10_arasi,2,Kombi_Dogalgaz,bilinmiyor,yok,var,yok,var,var,var,yok,yok,var,yok,var,yok,yok,var,yok,yok,yok,yok,yok,yok,yok,yok,yok,yok,yok,var,yok,yok,yok,yok,kademe_4,normal,kotu,normal,50_75_m2,2_oda,orta_4_7_kat,1_banyo,yok,yok,yok,dusuk,dusuk,yuksek,yok,1_5_2_Milyon_TL_Arasi
Elazig,Merkez,Satilik,16_20_arasi,5,Kombi_Dogalgaz,bilinmiyor,yok,var,var,var,yok,yok,var,var,var,yok,var,yok,yok,var,yok,yok,yok,yok,yok,yok,yok,yok,yok,yok,yok,var,var,yok,yok,yok,kademe_4,iyi,bilinmiyor,bilinmiyor,200_300_m2,7_oda_ve_ustu,orta_4_7_kat,2_banyo,dusuk,dusuk,yok,dusuk,yok,yuksek,yok,3_4_Milyon_TL_Arasi
Amasya,Merzifon,Satilik,1_5_arasi,5,Kombi_Dogalgaz,bilinmiyor,yok,var,yok,var,yok,yok,var,var,yok,yok,var,yok,yok,var,yok,yok,yok,yok,yok,yok,yok,yok,yok,yok,yok,var,yok,yok,yok,yok,kademe_4,normal,kotu,kotu,125_150_m2,4_oda,orta_4_7_kat,1_banyo,yok,yok,yok,dusuk,yok,yuksek,yok,4_5_Milyon_TL_Arasi
Amasya,Merkez,Satilik,1_5_arasi,2,Kombi_Dogalgaz,bilinmiyor,yok,var,yok,yok,yok,var,yok,yok,yok,yok,yok,yok,yok,yok,yok,yok,yok,yok,yok,yok,yok,yok,yok,yok,yok,yok,yok,yok,yok,yok,kademe_4,normal,normal,bilinmiyor,150_200_m2,4_oda,orta_4_7_kat,1_banyo,yok,yok,yok,dusuk,dusuk,yok,yok,4_5_Milyon_TL_Arasi
Aksaray,Guzelyurt,Satilik,31_ve_uzeri,Bahce,Kombi,bilinmiyor,yok,var,var,yok,yok,var,var,var,var,yok,yok,yok,yok,yok,yok,yok,yok,yok,yok,yok,yok,yok,var,yok,yok,var,yok,yok,yok,yok,kademe_4,bilinmiyor,kotu,bilinmiyor,300_m2_ve_ustu,7_oda_ve_ustu,alcak_1_3_kat,2_banyo,yok,yok,yok,dusuk,dusuk,dusuk,yok,10_Milyon_TL_Ustu
Amasya,Merzifon,Satilik,0,3,Kombi,bilinmiyor,yok,var,yok,var,yok,yok,var,var,yok,yok,var,yok,yok,var,yok,yok,yok,yok,yok,yok,yok,yok,var,yok,yok,var,yok,yok,yok,yok,kademe_4,normal,normal,kotu,100_125_m2,3_oda,orta_4_7_kat,1_banyo,yok,yok,dusuk,dusuk,orta,yuksek,yok,2_3_Milyon_TL_Arasi
Amasya,Merkez,Satilik,21_25_arasi,4,Kombi,bilinmiyor,yok,var,yok,yok,yok,yok,yok,var,var,yok,var,yok,yok,yok,yok,yok,yok,yok,yok,yok,yok,yok,yok,yok,yok,var,yok,yok,yok,yok,kademe_4,iyi,normal,bilinmiyor,150_200_m2,4_oda,orta_4_7_kat,1_banyo,yok,yok,dusuk,dusuk,orta,yok,yok,2_3_Milyon_TL_Arasi
Amasya,Merzifon,Satilik,6_10_arasi,1,Kombi_Dogalgaz,bilinmiyor,yok,yok,var,var,yok,var,yok,var,yok,yok,var,yok,yok,var,yok,yok,yok,yok,yok,yok,yok,yok,yok,yok,yok,yok,yok,yok,yok,yok,kademe_4,kotu,normal,bilinmiyor,125_150_m2,4_oda,orta_4_7_kat,1_banyo,yok,yok,yok,dusuk,yok,orta,yok,2_3_Milyon_TL_Arasi
Kastamonu,Merkez,Satilik,1_5_arasi,2,Merkezi,bilinmiyor,yok,var,var,var,yok,yok,yok,var,yok,yok,var,var,yok,var,yok,yok,yok,yok,yok,yok,yok,yok,yok,yok,yok,var,yok,yok,yok,yok,kademe_4,bilinmiyor,iyi,iyi,200_300_m2,5_oda,orta_4_7_kat,3_banyo_ve_ustu,dusuk,dusuk,dusuk,orta,yuksek,yuksek,yok,5_7_Bucuk_Milyon_TL_Arasi
Aksaray,Merkez,Satilik,16_20_arasi,Ara_Kat,Kombi,bilinmiyor,yok,var,var,yok,yok,yok,yok,yok,yok,yok,yok,yok,yok,yok,yok,yok,yok,yok,yok,yok,yok,yok,yok,yok,yok,yok,yok,yok,yok,yok,kademe_4,kotu,bilinmiyor,normal,150_200_m2,4_oda,yuksek_8_15_kat,1_banyo,yok,yok,yok,dusuk,yok,yok,yok,3_4_Milyon_TL_Arasi
Amasya,Merzifon,Satilik,16_20_arasi,bilinmiyor,Kombi_Dogalgaz,bilinmiyor,yok,yok,yok,var,yok,var,var,var,yok,yok,var,yok,yok,var,yok,yok,yok,yok,yok,yok,yok,yok,var,yok,yok,var,yok,yok,yok,yok,kademe_4,bilinmiyor,bilinmiyor,bilinmiyor,125_150_m2,4_oda,alcak_1_3_kat,1_banyo,yok,yok,yok,dusuk,yok,orta,yok,5_7_Bucuk_Milyon_TL_Arasi
Elazig,Merkez,Satilik,21_25_arasi,1,Kombi_Dogalgaz,bilinmiyor,yok,yok,yok,yok,yok,yok,yok,var,var,yok,yok,yok,yok,yok,yok,yok,yok,yok,yok,yok,yok,yok,yok,yok,yok,yok,yok,yok,yok,yok,kademe_4,normal,bilinmiyor,bilinmiyor,150_200_m2,4_oda,orta_4_7_kat,1_banyo,yok,yok,yok,dusuk,yok,yok,yok,2_3_Milyon_TL_Arasi
Amasya,Merzifon,Satilik,0,1,Yerden_Isitma,bilinmiyor,yok,var,var,var,yok,yok,var,yok,yok,yok,yok,yok,yok,yok,yok,yok,yok,yok,yok,yok,yok,yok,yok,yok,yok,yok,yok,yok,yok,yok,kademe_4,iyi,normal,kotu,50_75_m2,2_oda,orta_4_7_kat,1_banyo,yok,yok,yok,dusuk,yok,yok,yok,1_5_Milyon_TL_Alti
Kastamonu,Merkez,Satilik,6_10_arasi,6,Merkezi,bilinmiyor,yok,var,var,yok,yok,var,yok,yok,yok,yok,var,yok,yok,var,yok,yok,yok,yok,yok,yok,yok,yok,yok,yok,yok,var,yok,yok,yok,yok,kademe_4,iyi,iyi,kotu,75_100_m2,3_oda,orta_4_7_kat,1_banyo,yok,yok,yok,orta,orta,dusuk,yok,3_4_Milyon_TL_Arasi
Kastamonu,Merkez,Satilik,0,3,Yerden_Isitma,bilinmiyor,yok,var,var,var,yok,var,var,var,var,yok,var,var,yok,var,yok,yok,yok,yok,yok,yok,yok,yok,var,yok,yok,var,yok,yok,yok,yok,kademe_4,bilinmiyor,iyi,bilinmiyor,150_200_m2,4_oda,orta_4_7_kat,2_banyo,dusuk,dusuk,dusuk,dusuk,yuksek,yuksek,yok,5_7_Bucuk_Milyon_TL_Arasi
Afyonkarahisar,Merkez,Satilik,16_20_arasi,bilinmiyor,Kombi,bilinmiyor,yok,yok,yok,var,yok,yok,var,var,var,yok,var,yok,yok,var,yok,yok,yok,yok,yok,yok,yok,yok,var,yok,yok,var,yok,yok,yok,var,kademe_4,normal,bilinmiyor,bilinmiyor,200_300_m2,7_oda_ve_ustu,orta_4_7_kat,3_banyo_ve_ustu,yok,dusuk,yok,orta,yuksek,yuksek,yok,5_7_Bucuk_Milyon_TL_Arasi
Elazig,Merkez,Satilik,16_20_arasi,Yuksek_Giris,Kombi,bilinmiyor,yok,var,var,var,yok,yok,var,var,var,yok,yok,yok,yok,yok,yok,yok,yok,yok,yok,yok,yok,yok,yok,yok,yok,var,yok,yok,yok,yok,kademe_4,normal,kotu,bilinmiyor,100_125_m2,4_oda,orta_4_7_kat,1_banyo,yok,yok,dusuk,dusuk,yuksek,orta,yok,1_5_2_Milyon_TL_Arasi
Amasya,Merkez,Satilik,1_5_arasi,5,Kombi,bilinmiyor,yok,var,yok,var,var,yok,var,var,yok,yok,var,var,yok,var,yok,yok,yok,yok,yok,yok,yok,yok,yok,yok,yok,var,yok,yok,yok,yok,kademe_4,normal,normal,iyi,150_200_m2,4_oda,orta_4_7_kat,2_banyo,yok,dusuk,dusuk,dusuk,yok,yuksek,yok,5_7_Bucuk_Milyon_TL_Arasi
Afyonkarahisar,Merkez,Satilik,26_30_arasi,2,Kombi,bilinmiyor,yok,var,yok,yok,yok,var,var,yok,yok,yok,yok,yok,yok,yok,yok,yok,yok,yok,yok,yok,yok,yok,yok,yok,yok,yok,yok,yok,yok,yok,kademe_4,iyi,kotu,kotu,100_125_m2,3_oda,orta_4_7_kat,1_banyo,yok,yok,yok,dusuk,yok,dusuk,yok,3_4_Milyon_TL_Arasi
Kastamonu,Merkez,Satilik,11_15_arasi,Bahce,Soba,bilinmiyor,yok,var,yok,var,var,var,var,var,var,yok,yok,yok,yok,yok,yok,yok,yok,yok,yok,yok,yok,yok,var,var,yok,var,var,yok,yok,yok,kademe_4,kotu,kotu,bilinmiyor,150_200_m2,5_oda,bilinmiyor,2_banyo,yok,yok,yok,dusuk,yok,yok,yok,5_7_Bucuk_Milyon_TL_Arasi
Amasya,Merzifon,Satilik,0,1,Kombi_Dogalgaz,bilinmiyor,yok,var,var,yok,yok,yok,yok,yok,yok,yok,var,var,yok,var,yok,yok,yok,yok,yok,yok,yok,yok,yok,yok,yok,var,yok,yok,yok,yok,kademe_4,iyi,normal,bilinmiyor,100_125_m2,3_oda,orta_4_7_kat,2_banyo,dusuk,yok,yok,dusuk,yok,yuksek,yok,3_4_Milyon_TL_Arasi
Artvin,Savsat,Satilik,1_5_arasi,Kot_1,Kombi,bilinmiyor,yok,var,var,yok,yok,yok,yok,yok,yok,yok,yok,yok,yok,yok,yok,yok,yok,yok,yok,yok,yok,yok,yok,yok,yok,yok,yok,yok,yok,yok,kademe_4,normal,iyi,bilinmiyor,125_150_m2,4_oda,yuksek_8_15_kat,1_banyo,yok,yok,yok,yok,yok,yok,yok,3_4_Milyon_TL_Arasi
Amasya,Merzifon,Satilik,0,3,Yerden_Isitma,bilinmiyor,yok,var,var,var,yok,yok,var,yok,yok,yok,yok,yok,yok,yok,yok,yok,yok,yok,yok,yok,yok,yok,yok,yok,yok,yok,yok,yok,yok,yok,kademe_4,bilinmiyor,iyi,bilinmiyor,75_100_m2,2_oda,orta_4_7_kat,1_banyo,yok,yok,yok,dusuk,yok,yok,yok,2_3_Milyon_TL_Arasi
Amasya,Merzifon,Satilik,1_5_arasi,1,Kombi_Dogalgaz,bilinmiyor,yok,yok,var,yok,yok,yok,yok,yok,yok,yok,yok,yok,yok,yok,yok,yok,yok,yok,yok,yok,yok,yok,yok,yok,yok,yok,yok,yok,yok,yok,kademe_4,iyi,bilinmiyor,normal,125_150_m2,4_oda,orta_4_7_kat,2_banyo,yok,yok,yok,dusuk,yok,yok,yok,3_4_Milyon_TL_Arasi
Kastamonu,Merkez,Satilik,31_ve_uzeri,Bahce,Soba,bilinmiyor,yok,yok,yok,yok,yok,yok,yok,var,yok,yok,yok,yok,yok,yok,yok,yok,yok,yok,yok,yok,yok,yok,var,yok,yok,var,yok,yok,yok,yok,kademe_4,bilinmiyor,bilinmiyor,bilinmiyor,75_100_m2,3_oda,bilinmiyor,1_banyo,yok,yok,yok,dusuk,dusuk,yok,yok,1_5_Milyon_TL_Alti
Amasya,Merzifon,Satilik,31_ve_uzeri,bilinmiyor,Kombi_Dogalgaz,bilinmiyor,yok,yok,yok,yok,yok,var,var,yok,yok,yok,var,yok,yok,var,yok,yok,yok,yok,yok,yok,yok,yok,yok,yok,yok,var,yok,yok,yok,yok,kademe_4,normal,bilinmiyor,kotu,300_m2_ve_ustu,4_oda,alcak_1_3_kat,2_banyo,yok,yok,yok,dusuk,yok,yuksek,yok,5_7_Bucuk_Milyon_TL_Arasi
Aksaray,Merkez,Satilik,0,7,Yerden_Isitma,bilinmiyor,yok,var,var,yok,yok,yok,var,var,yok,yok,yok,yok,yok,yok,yok,yok,yok,yok,yok,yok,yok,var,yok,yok,yok,yok,yok,yok,yok,yok,kademe_4,normal,iyi,bilinmiyor,100_125_m2,3_oda,yuksek_8_15_kat,1_banyo,yok,yok,yok,yok,yok,yok,yok,3_4_Milyon_TL_Arasi
Kastamonu,Merkez,Satilik,1_5_arasi,3,Merkezi,bilinmiyor,yok,var,var,yok,yok,yok,var,yok,var,yok,var,var,yok,var,yok,yok,yok,yok,yok,yok,yok,yok,var,yok,yok,var,yok,yok,yok,yok,kademe_4,iyi,iyi,kotu,125_150_m2,4_oda,yuksek_8_15_kat,2_banyo,dusuk,yok,dusuk,orta,orta,yuksek,yok,4_5_Milyon_TL_Arasi
Kastamonu,Merkez,Satilik,6_10_arasi,2,Kombi_Dogalgaz,bilinmiyor,yok,var,yok,var,var,yok,yok,yok,yok,yok,yok,yok,yok,yok,yok,yok,yok,yok,yok,yok,yok,yok,yok,yok,yok,yok,yok,yok,yok,yok,kademe_4,bilinmiyor,normal,normal,50_75_m2,2_oda,orta_4_7_kat,1_banyo,yok,yok,yok,dusuk,yok,yok,yok,2_3_Milyon_TL_Arasi
Amasya,Merzifon,Satilik,11_15_arasi,4,Merkezi,bilinmiyor,yok,var,yok,var,yok,yok,var,yok,var,yok,var,yok,yok,yok,yok,yok,yok,yok,yok,yok,yok,yok,yok,yok,yok,var,yok,yok,yok,yok,kademe_4,normal,bilinmiyor,bilinmiyor,100_125_m2,4_oda,orta_4_7_kat,1_banyo,dusuk,yok,yok,dusuk,yok,yuksek,yok,2_3_Milyon_TL_Arasi
Amasya,Merzifon,Satilik,1_5_arasi,2,Kombi,bilinmiyor,yok,var,var,var,yok,var,yok,yok,var,yok,yok,yok,yok,yok,yok,yok,yok,yok,yok,yok,yok,yok,yok,yok,yok,yok,yok,yok,yok,yok,kademe_4,iyi,iyi,bilinmiyor,100_125_m2,3_oda,orta_4_7_kat,2_banyo,yok,yok,yok,dusuk,yok,yok,yok,3_4_Milyon_TL_Arasi
Elazig,Merkez,Satilik,0,3,Kombi_Dogalgaz,bilinmiyor,yok,yok,yok,yok,yok,var,var,var,var,yok,yok,yok,yok,yok,yok,yok,yok,yok,yok,yok,yok,yok,yok,yok,yok,yok,yok,yok,yok,yok,kademe_4,iyi,iyi,iyi,150_200_m2,4_oda,yuksek_8_15_kat,2_banyo,yok,yok,yok,dusuk,yok,yok,yok,5_7_Bucuk_Milyon_TL_Arasi
Elazig,Karakocan,Satilik,0,3,Kombi,bilinmiyor,yok,var,var,var,yok,yok,var,var,yok,yok,yok,yok,yok,var,yok,yok,yok,yok,yok,yok,yok,yok,yok,yok,yok,yok,yok,yok,yok,yok,kademe_4,iyi,normal,iyi,100_125_m2,4_oda,orta_4_7_kat,1_banyo,yok,yok,dusuk,orta,orta,yuksek,yok,2_3_Milyon_TL_Arasi
Kastamonu,Merkez,Satilik,1_5_arasi,2,Kombi,bilinmiyor,yok,var,var,var,yok,yok,yok,var,yok,yok,var,yok,yok,yok,yok,yok,yok,yok,yok,yok,yok,yok,yok,yok,yok,var,yok,yok,yok,yok,kademe_4,iyi,normal,bilinmiyor,50_75_m2,2_oda,orta_4_7_kat,1_banyo,yok,yok,dusuk,dusuk,orta,yok,yok,1_5_2_Milyon_TL_Arasi
Kastamonu,Merkez,Satilik,21_25_arasi,bilinmiyor,Soba,bilinmiyor,yok,yok,yok,yok,var,yok,yok,var,yok,yok,yok,yok,yok,yok,yok,yok,yok,yok,yok,yok,yok,yok,yok,yok,yok,yok,yok,yok,yok,yok,kademe_4,bilinmiyor,bilinmiyor,bilinmiyor,300_m2_ve_ustu,7_oda_ve_ustu,orta_4_7_kat,2_banyo,yok,yok,yok,dusuk,yok,yok,yok,7_Bucuk_10_Milyon_TL_Arasi
Aksaray,Merkez,Satilik,0,1,Kombi,bilinmiyor,yok,var,var,yok,yok,yok,var,var,yok,yok,yok,yok,yok,yok,yok,yok,yok,yok,yok,yok,yok,yok,yok,yok,yok,var,yok,yok,yok,yok,kademe_4,iyi,bilinmiyor,bilinmiyor,0_50_m2,2_oda,orta_4_7_kat,1_banyo,dusuk,yok,yok,dusuk,dusuk,dusuk,yok,1_5_Milyon_TL_Alti
Elazig,Merkez,Satilik,11_15_arasi,1,Merkezi,bilinmiyor,yok,var,yok,var,yok,var,var,var,yok,yok,yok,yok,yok,yok,yok,yok,yok,yok,yok,yok,yok,yok,yok,yok,yok,yok,yok,yok,yok,yok,kademe_4,iyi,kotu,kotu,200_300_m2,5_oda,orta_4_7_kat,2_banyo,yok,yok,yok,dusuk,yok,yok,yok,3_4_Milyon_TL_Arasi
Aksaray,Merkez,Satilik,0,3,Kombi,bilinmiyor,yok,var,var,yok,yok,yok,yok,yok,yok,yok,yok,yok,yok,yok,yok,yok,yok,yok,yok,yok,yok,yok,yok,yok,yok,yok,yok,yok,yok,yok,kademe_4,normal,bilinmiyor,bilinmiyor,50_75_m2,2_oda,orta_4_7_kat,1_banyo,yok,yok,yok,yok,yok,yok,yok,1_5_Milyon_TL_Alti
Amasya,Merzifon,Satilik,11_15_arasi,Yuksek_Giris,Kombi_Dogalgaz,bilinmiyor,yok,yok,yok,yok,yok,yok,var,var,yok,yok,yok,yok,yok,yok,yok,yok,yok,yok,yok,yok,yok,yok,yok,yok,yok,yok,yok,yok,yok,yok,kademe_4,normal,kotu,bilinmiyor,125_150_m2,4_oda,orta_4_7_kat,2_banyo,yok,yok,yok,dusuk,dusuk,yok,yok,2_3_Milyon_TL_Arasi
Kastamonu,Tosya,Satilik,16_20_arasi,Zemin,Kombi,bilinmiyor,yok,yok,yok,yok,yok,yok,yok,var,yok,yok,yok,yok,yok,yok,yok,yok,yok,yok,yok,yok,yok,yok,yok,yok,yok,var,yok,yok,yok,yok,kademe_4,normal,bilinmiyor,bilinmiyor,75_100_m2,2_oda,orta_4_7_kat,1_banyo,yok,yok,yok,dusuk,dusuk,yok,yok,1_5_2_Milyon_TL_Arasi
Amasya,Merkez,Satilik,6_10_arasi,9,Kombi,bilinmiyor,yok,var,yok,var,yok,yok,yok,yok,yok,yok,var,var,yok,var,yok,yok,yok,yok,var,yok,yok,yok,var,yok,yok,var,yok,yok,yok,yok,kademe_4,bilinmiyor,iyi,bilinmiyor,200_300_m2,7_oda_ve_ustu,yuksek_8_15_kat,2_banyo,dusuk,dusuk,yok,dusuk,orta,yuksek,yok,10_Milyon_TL_Ustu
Aksaray,Merkez,Satilik,0,6,Kombi,bilinmiyor,yok,var,yok,yok,yok,yok,var,var,yok,yok,yok,yok,yok,yok,yok,yok,yok,yok,yok,yok,yok,yok,yok,yok,yok,var,yok,yok,yok,yok,kademe_4,normal,iyi,bilinmiyor,50_75_m2,2_oda,orta_4_7_kat,1_banyo,yok,yok,yok,dusuk,orta,yok,yok,2_3_Milyon_TL_Arasi
Kastamonu,Merkez,Satilik,31_ve_uzeri,bilinmiyor,Kombi,bilinmiyor,yok,yok,yok,yok,yok,yok,yok,yok,yok,yok,yok,yok,yok,yok,yok,yok,yok,yok,yok,yok,yok,yok,yok,yok,yok,yok,yok,yok,yok,yok,kademe_4,normal,bilinmiyor,normal,150_200_m2,7_oda_ve_ustu,orta_4_7_kat,3_banyo_ve_ustu,yok,yok,yok,dusuk,yok,yok,yok,10_Milyon_TL_Ustu
Kastamonu,Abana,Satilik,1_5_arasi,1,Kombi,bilinmiyor,yok,var,var,var,yok,var,var,var,yok,yok,var,yok,yok,var,yok,yok,yok,yok,yok,yok,yok,yok,var,yok,yok,var,yok,yok,yok,yok,kademe_4,iyi,normal,bilinmiyor,100_125_m2,4_oda,orta_4_7_kat,1_banyo,dusuk,yok,yok,orta,yuksek,yuksek,yok,4_5_Milyon_TL_Arasi
Aksaray,Merkez,Satilik,6_10_arasi,Ara_Kat,Kombi_Dogalgaz,bilinmiyor,yok,var,var,var,yok,yok,yok,var,yok,yok,var,yok,yok,var,yok,yok,yok,yok,yok,yok,var,yok,yok,yok,yok,yok,yok,yok,yok,yok,kademe_4,bilinmiyor,iyi,bilinmiyor,150_200_m2,4_oda,orta_4_7_kat,1_banyo,dusuk,orta,dusuk,yok,yok,yuksek,yok,4_5_Milyon_TL_Arasi
Kastamonu,Taskopru,Satilik,11_15_arasi,1,Kombi,bilinmiyor,yok,var,var,var,yok,yok,var,var,yok,yok,var,var,yok,var,yok,yok,yok,yok,yok,yok,yok,yok,var,yok,yok,var,yok,yok,yok,yok,kademe_4,bilinmiyor,bilinmiyor,bilinmiyor,125_150_m2,4_oda,orta_4_7_kat,2_banyo,yok,yok,yok,dusuk,orta,orta,yok,4_5_Milyon_TL_Arasi
Aksaray,Merkez,Satilik,0,3,Yerden_Isitma,bilinmiyor,yok,var,var,var,var,yok,yok,var,yok,yok,yok,yok,yok,yok,yok,yok,yok,yok,yok,yok,yok,yok,yok,yok,yok,yok,yok,yok,yok,yok,kademe_4,normal,bilinmiyor,iyi,0_50_m2,2_oda,orta_4_7_kat,1_banyo,dusuk,yok,yok,yok,dusuk,dusuk,yok,2_3_Milyon_TL_Arasi
Amasya,Merzifon,Satilik,6_10_arasi,1,Kombi,bilinmiyor,yok,var,yok,var,var,yok,yok,yok,yok,yok,yok,yok,yok,yok,yok,yok,yok,yok,yok,yok,yok,yok,yok,yok,yok,var,yok,yok,yok,yok,kademe_4,kotu,normal,kotu,50_75_m2,2_oda,orta_4_7_kat,1_banyo,yok,yok,dusuk,dusuk,orta,orta,yok,1_5_Milyon_TL_Alti
Elazig,Merkez,Satilik,1_5_arasi,8,Kombi,bilinmiyor,yok,var,yok,yok,yok,yok,yok,yok,yok,yok,yok,yok,yok,yok,yok,yok,yok,yok,yok,yok,yok,yok,yok,yok,yok,yok,yok,yok,yok,yok,kademe_4,kotu,normal,kotu,50_75_m2,2_oda,yuksek_8_15_kat,1_banyo,yok,yok,yok,dusuk,yok,yok,yok,2_3_Milyon_TL_Arasi
Elazig,Merkez,Satilik,31_ve_uzeri,1,bilinmiyor,bilinmiyor,yok,yok,var,yok,yok,yok,yok,yok,yok,yok,yok,yok,yok,yok,yok,yok,yok,yok,yok,yok,yok,yok,yok,yok,yok,yok,yok,yok,yok,yok,kademe_4,bilinmiyor,bilinmiyor,bilinmiyor,75_100_m2,3_oda,alcak_1_3_kat,bilinmiyor,yok,yok,yok,dusuk,yok,yok,yok,10_Milyon_TL_Ustu
Aksaray,Merkez,Satilik,0,Yuksek_Giris,Kombi,bilinmiyor,yok,var,yok,yok,var,yok,yok,yok,yok,yok,yok,yok,yok,yok,yok,yok,yok,yok,yok,yok,yok,yok,yok,yok,yok,yok,yok,yok,yok,yok,kademe_4,normal,normal,bilinmiyor,0_50_m2,2_oda,orta_4_7_kat,1_banyo,yok,yok,yok,yok,yok,yok,yok,1_5_2_Milyon_TL_Arasi
Kastamonu,Arac,Satilik,0,6,Kombi_Dogalgaz,bilinmiyor,yok,yok,yok,yok,yok,yok,yok,yok,yok,yok,yok,yok,yok,yok,yok,yok,yok,yok,yok,yok,yok,yok,var,yok,yok,var,yok,yok,yok,yok,kademe_4,iyi,bilinmiyor,iyi,150_200_m2,4_oda,orta_4_7_kat,2_banyo,yok,yok,yok,dusuk,orta,yok,yok,5_7_Bucuk_Milyon_TL_Arasi
Sivas,Merkez,Satilik,16_20_arasi,4,Kombi,bilinmiyor,yok,var,yok,var,yok,var,var,var,yok,yok,var,yok,yok,yok,yok,yok,yok,yok,yok,yok,yok,yok,yok,yok,yok,var,yok,yok,yok,yok,kademe_4,bilinmiyor,iyi,bilinmiyor,75_100_m2,3_oda,orta_4_7_kat,1_banyo,yok,yok,yok,dusuk,orta,yuksek,yok,2_3_Milyon_TL_Arasi
Kastamonu,Merkez,Satilik,6_10_arasi,3,Merkezi,bilinmiyor,yok,var,var,var,var,var,var,var,yok,yok,var,yok,yok,var,yok,yok,yok,yok,yok,yok,yok,yok,yok,yok,yok,var,yok,yok,yok,yok,kademe_4,iyi,iyi,kotu,50_75_m2,3_oda,orta_4_7_kat,1_banyo,dusuk,dusuk,dusuk,orta,yuksek,yuksek,yok,3_4_Milyon_TL_Arasi
Afyonkarahisar,Merkez,Satilik,6_10_arasi,1,Kombi,bilinmiyor,yok,var,var,yok,var,yok,yok,yok,yok,yok,yok,yok,yok,yok,yok,yok,yok,yok,yok,yok,yok,yok,yok,yok,yok,var,yok,yok,yok,yok,kademe_4,normal,bilinmiyor,bilinmiyor,50_75_m2,2_oda,orta_4_7_kat,1_banyo,yok,yok,yok,orta,orta,yuksek,yok,1_5_Milyon_TL_Alti
Amasya,Merkez,Satilik,0,3,Yerden_Isitma,bilinmiyor,yok,var,yok,yok,yok,yok,yok,var,var,yok,var,yok,yok,yok,yok,yok,yok,yok,yok,yok,yok,yok,var,yok,yok,var,yok,yok,yok,yok,kademe_4,bilinmiyor,bilinmiyor,bilinmiyor,100_125_m2,3_oda,orta_4_7_kat,1_banyo,dusuk,yok,yok,dusuk,dusuk,orta,yok,3_4_Milyon_TL_Arasi
Elazig,Merkez,Satilik,6_10_arasi,4,Kombi,bilinmiyor,yok,var,var,var,yok,var,yok,yok,var,yok,var,yok,yok,var,yok,yok,yok,yok,yok,yok,yok,yok,var,yok,yok,var,yok,yok,yok,yok,kademe_4,normal,iyi,bilinmiyor,100_125_m2,3_oda,orta_4_7_kat,1_banyo,yok,yok,dusuk,dusuk,yuksek,yuksek,yok,3_4_Milyon_TL_Arasi
Kastamonu,Merkez,Satilik,0,6,Merkezi,bilinmiyor,yok,var,var,var,yok,yok,var,var,yok,yok,yok,yok,yok,var,yok,yok,yok,yok,yok,yok,yok,yok,var,yok,yok,var,yok,yok,yok,yok,kademe_4,iyi,normal,iyi,50_75_m2,3_oda,cok_yuksek_16_ustu_kat,1_banyo,dusuk,yok,yok,dusuk,dusuk,yuksek,yok,3_4_Milyon_TL_Arasi
Afyonkarahisar,Merkez,Satilik,31_ve_uzeri,3,Jeotermal,bilinmiyor,yok,var,var,var,yok,yok,var,var,yok,yok,yok,yok,yok,var,yok,yok,yok,yok,yok,yok,yok,yok,yok,yok,yok,yok,yok,yok,yok,yok,kademe_4,normal,bilinmiyor,bilinmiyor,125_150_m2,4_oda,orta_4_7_kat,1_banyo,yok,yok,yok,dusuk,orta,orta,yok,2_3_Milyon_TL_Arasi
Kastamonu,Bozkurt,Satilik,1_5_arasi,2,Merkezi,bilinmiyor,yok,var,var,yok,yok,var,yok,yok,yok,yok,var,yok,yok,yok,yok,yok,yok,yok,yok,yok,yok,yok,yok,yok,yok,var,yok,yok,yok,yok,kademe_4,kotu,kotu,bilinmiyor,100_125_m2,3_oda,orta_4_7_kat,2_banyo,yok,yok,yok,dusuk,yok,dusuk,yok,3_4_Milyon_TL_Arasi
Amasya,Merkez,Satilik,16_20_arasi,4,Kombi,bilinmiyor,yok,var,yok,var,yok,yok,var,var,yok,yok,yok,yok,yok,yok,yok,yok,yok,yok,yok,yok,yok,yok,var,yok,yok,var,yok,yok,yok,yok,kademe_4,normal,kotu,bilinmiyor,125_150_m2,4_oda,orta_4_7_kat,1_banyo,yok,yok,yok,dusuk,orta,dusuk,yok,2_3_Milyon_TL_Arasi
Kastamonu,Merkez,Satilik,6_10_arasi,3,Kombi,bilinmiyor,yok,var,yok,var,yok,var,yok,var,var,yok,var,yok,yok,yok,yok,yok,yok,yok,yok,yok,yok,yok,var,yok,yok,var,yok,yok,yok,yok,kademe_4,iyi,bilinmiyor,bilinmiyor,75_100_m2,3_oda,orta_4_7_kat,1_banyo,dusuk,yok,dusuk,orta,yuksek,yuksek,yok,4_5_Milyon_TL_Arasi
Elazig,Merkez,Satilik,31_ve_uzeri,1,bilinmiyor,bilinmiyor,yok,var,yok,yok,yok,yok,yok,yok,yok,yok,yok,yok,yok,yok,yok,yok,yok,yok,yok,yok,yok,yok,yok,yok,yok,yok,yok,yok,yok,yok,kademe_4,bilinmiyor,bilinmiyor,bilinmiyor,75_100_m2,4_oda,alcak_1_3_kat,1_banyo,yok,yok,yok,dusuk,yok,yok,yok,1_5_Milyon_TL_Alti
Aksaray,Merkez,Satilik,1_5_arasi,Yuksek_Giris,Yerden_Isitma,bilinmiyor,yok,var,var,yok,var,yok,yok,yok,yok,yok,yok,yok,yok,yok,yok,yok,yok,yok,yok,yok,yok,yok,yok,yok,yok,yok,yok,yok,yok,yok,kademe_4,normal,normal,bilinmiyor,0_50_m2,2_oda,orta_4_7_kat,1_banyo,yok,yok,yok,dusuk,yok,yok,yok,1_5_Milyon_TL_Alti
Amasya,Merzifon,Satilik,11_15_arasi,3,Merkezi,bilinmiyor,yok,var,yok,var,yok,yok,var,var,yok,yok,yok,yok,yok,yok,yok,yok,yok,yok,yok,yok,yok,yok,yok,yok,yok,yok,yok,yok,yok,yok,kademe_4,normal,normal,bilinmiyor,75_100_m2,2_oda,orta_4_7_kat,1_banyo,yok,yok,yok,dusuk,yok,yok,yok,1_5_2_Milyon_TL_Arasi
Aksaray,Merkez,Satilik,0,2,Kombi,bilinmiyor,yok,var,var,var,var,yok,yok,yok,yok,yok,yok,yok,yok,yok,yok,yok,yok,yok,yok,yok,yok,yok,yok,yok,yok,yok,yok,yok,yok,yok,kademe_4,iyi,bilinmiyor,iyi,0_50_m2,2_oda,orta_4_7_kat,1_banyo,yok,yok,yok,dusuk,yok,yok,yok,1_5_Milyon_TL_Alti
Amasya,Merzifon,Satilik,6_10_arasi,bilinmiyor,Kat_Kaloriferi,bilinmiyor,yok,var,yok,var,yok,var,var,var,var,yok,var,var,yok,var,yok,yok,yok,yok,yok,yok,yok,yok,yok,yok,yok,var,yok,yok,yok,yok,kademe_4,kotu,normal,kotu,300_m2_ve_ustu,4_oda,alcak_1_3_kat,2_banyo,yok,yok,yok,dusuk,yok,yok,yok,3_4_Milyon_TL_Arasi
Kastamonu,Merkez,Satilik,11_15_arasi,1,Kombi,bilinmiyor,yok,var,var,var,yok,yok,var,var,yok,yok,var,yok,yok,var,yok,yok,yok,yok,yok,yok,yok,yok,var,yok,yok,var,yok,yok,yok,yok,kademe_4,iyi,bilinmiyor,bilinmiyor,150_200_m2,4_oda,yuksek_8_15_kat,1_banyo,dusuk,dusuk,dusuk,dusuk,yuksek,yuksek,yok,4_5_Milyon_TL_Arasi
Aksaray,Merkez,Satilik,0,4,Kombi_Dogalgaz,bilinmiyor,yok,var,yok,yok,yok,yok,yok,var,yok,yok,yok,yok,yok,yok,yok,yok,yok,yok,yok,yok,yok,yok,yok,yok,yok,yok,yok,yok,yok,yok,kademe_4,iyi,bilinmiyor,iyi,100_125_m2,3_oda,orta_4_7_kat,1_banyo,yok,yok,yok,yok,yok,yok,yok,4_5_Milyon_TL_Arasi
Kastamonu,Devrekani,Satilik,31_ve_uzeri,Bahce,Soba,bilinmiyor,yok,yok,yok,yok,yok,var,var,var,var,yok,yok,yok,yok,yok,yok,yok,yok,yok,yok,yok,yok,yok,yok,yok,yok,var,yok,yok,yok,yok,kademe_4,bilinmiyor,normal,bilinmiyor,150_200_m2,6_oda,bilinmiyor,2_banyo,yok,yok,dusuk,dusuk,yuksek,dusuk,yok,3_4_Milyon_TL_Arasi
Amasya,Merzifon,Satilik,16_20_arasi,5,Kombi_Dogalgaz,bilinmiyor,yok,yok,yok,yok,yok,var,yok,yok,var,yok,yok,yok,yok,yok,yok,yok,yok,yok,yok,yok,yok,yok,yok,yok,yok,yok,yok,yok,yok,yok,kademe_4,iyi,normal,bilinmiyor,150_200_m2,4_oda,orta_4_7_kat,1_banyo,yok,yok,yok,dusuk,yok,yok,yok,3_4_Milyon_TL_Arasi
Afyonkarahisar,Merkez,Satilik,6_10_arasi,1,bilinmiyor,bilinmiyor,yok,var,var,yok,yok,yok,yok,yok,yok,yok,yok,yok,yok,yok,yok,yok,yok,yok,yok,yok,yok,yok,yok,yok,yok,yok,yok,yok,yok,yok,kademe_4,bilinmiyor,iyi,bilinmiyor,75_100_m2,3_oda,alcak_1_3_kat,1_banyo,yok,yok,yok,dusuk,yok,yok,yok,5_7_Bucuk_Milyon_TL_Arasi
Amasya,Merkez,Satilik,31_ve_uzeri,bilinmiyor,Soba,bilinmiyor,yok,yok,yok,yok,yok,var,var,var,var,yok,yok,yok,yok,yok,yok,yok,yok,yok,yok,yok,yok,yok,var,yok,yok,yok,yok,yok,yok,yok,kademe_4,bilinmiyor,bilinmiyor,bilinmiyor,300_m2_ve_ustu,5_oda,alcak_1_3_kat,1_banyo,yok,yok,yok,dusuk,yok,orta,yok,1_5_Milyon_TL_Alti
Amasya,Merzifon,Satilik,6_10_arasi,En_Ust_Kat,Kombi_Dogalgaz,bilinmiyor,yok,var,var,yok,yok,var,yok,var,yok,yok,var,var,yok,var,yok,yok,yok,yok,yok,yok,yok,yok,yok,yok,yok,var,var,yok,yok,yok,kademe_4,kotu,normal,kotu,300_m2_ve_ustu,7_oda_ve_ustu,orta_4_7_kat,3_banyo_ve_ustu,dusuk,yok,yok,dusuk,yok,yuksek,yok,5_7_Bucuk_Milyon_TL_Arasi
Kastamonu,Abana,Satilik,31_ve_uzeri,bilinmiyor,Soba,bilinmiyor,yok,yok,yok,yok,yok,yok,yok,yok,yok,yok,yok,yok,yok,yok,yok,yok,yok,yok,yok,yok,yok,yok,yok,yok,yok,yok,yok,yok,yok,yok,kademe_4,bilinmiyor,bilinmiyor,bilinmiyor,300_m2_ve_ustu,7_oda_ve_ustu,alcak_1_3_kat,1_banyo,yok,yok,yok,dusuk,yok,yok,yok,10_Milyon_TL_Ustu
Amasya,Merkez,Satilik,11_15_arasi,3,Kombi,bilinmiyor,yok,yok,yok,var,yok,var,var,var,var,yok,var,yok,yok,var,yok,yok,yok,yok,yok,yok,yok,yok,var,yok,yok,yok,yok,yok,yok,yok,kademe_4,iyi,bilinmiyor,bilinmiyor,75_100_m2,3_oda,orta_4_7_kat,1_banyo,dusuk,yok,dusuk,orta,yuksek,yuksek,yok,1_5_Milyon_TL_Alti
Elazig,Merkez,Satilik,1_5_arasi,1,bilinmiyor,bilinmiyor,yok,yok,var,yok,yok,yok,yok,yok,yok,yok,yok,yok,yok,yok,yok,yok,yok,yok,yok,yok,yok,yok,yok,yok,yok,yok,yok,yok,yok,yok,kademe_4,bilinmiyor,bilinmiyor,bilinmiyor,100_125_m2,4_oda,alcak_1_3_kat,2_banyo,yok,yok,yok,dusuk,yok,yok,yok,2_3_Milyon_TL_Arasi
Afyonkarahisar,Merkez,Satilik,6_10_arasi,1,bilinmiyor,bilinmiyor,yok,var,var,yok,yok,yok,yok,yok,yok,yok,yok,yok,yok,yok,yok,yok,yok,yok,yok,yok,yok,yok,yok,yok,yok,yok,yok,yok,yok,yok,kademe_4,bilinmiyor,normal,bilinmiyor,100_125_m2,3_oda,alcak_1_3_kat,1_banyo,yok,yok,yok,dusuk,yok,yok,yok,5_7_Bucuk_Milyon_TL_Arasi
Aksaray,Agacoren,Satilik,31_ve_uzeri,3,Kombi,bilinmiyor,yok,yok,yok,yok,yok,yok,yok,yok,yok,yok,yok,yok,yok,yok,yok,yok,yok,yok,yok,yok,yok,yok,yok,yok,yok,yok,yok,yok,yok,yok,kademe_4,bilinmiyor,bilinmiyor,bilinmiyor,100_125_m2,4_oda,orta_4_7_kat,1_banyo,yok,yok,yok,dusuk,yok,yok,yok,1_5_2_Milyon_TL_Arasi
Artvin,Merkez,Satilik,11_15_arasi,3,Kombi,bilinmiyor,yok,var,var,var,yok,yok,yok,yok,yok,yok,yok,yok,yok,yok,yok,yok,yok,yok,yok,yok,yok,yok,yok,yok,yok,yok,yok,yok,yok,yok,kademe_4,iyi,normal,bilinmiyor,125_150_m2,4_oda,yuksek_8_15_kat,1_banyo,yok,yok,yok,dusuk,dusuk,yok,yok,3_4_Milyon_TL_Arasi
Amasya,Merzifon,Satilik,16_20_arasi,3,Kombi_Dogalgaz,bilinmiyor,yok,var,yok,yok,yok,yok,var,var,yok,yok,var,yok,yok,var,yok,yok,yok,yok,yok,yok,yok,yok,yok,yok,yok,var,yok,yok,yok,yok,kademe_4,bilinmiyor,bilinmiyor,bilinmiyor,150_200_m2,4_oda,orta_4_7_kat,1_banyo,yok,yok,yok,dusuk,orta,yuksek,yok,2_3_Milyon_TL_Arasi
Afyonkarahisar,Merkez,Satilik,26_30_arasi,4,Kombi,bilinmiyor,yok,var,var,var,yok,yok,yok,var,yok,yok,yok,yok,yok,yok,yok,yok,yok,yok,yok,yok,yok,yok,yok,yok,yok,yok,yok,yok,yok,yok,kademe_4,normal,kotu,bilinmiyor,125_150_m2,4_oda,orta_4_7_kat,1_banyo,yok,yok,yok,dusuk,yok,yok,yok,3_4_Milyon_TL_Arasi
Afyonkarahisar,Merkez,Satilik,31_ve_uzeri,6,Kombi,bilinmiyor,yok,var,var,var,yok,var,yok,var,yok,yok,yok,yok,yok,yok,yok,yok,yok,yok,yok,yok,yok,yok,yok,yok,yok,yok,yok,yok,yok,yok,kademe_4,iyi,bilinmiyor,bilinmiyor,100_125_m2,3_oda,yuksek_8_15_kat,1_banyo,yok,yok,yok,yok,yok,yok,yok,2_3_Milyon_TL_Arasi
Sivas,Merkez,Satilik,1_5_arasi,2,Kombi,bilinmiyor,yok,var,var,var,yok,yok,yok,yok,yok,yok,var,yok,yok,yok,yok,yok,yok,yok,yok,yok,yok,yok,yok,yok,yok,yok,yok,yok,yok,yok,kademe_4,iyi,normal,bilinmiyor,125_150_m2,4_oda,orta_4_7_kat,1_banyo,yok,yok,yok,yok,yok,dusuk,yok,3_4_Milyon_TL_Arasi
Kastamonu,Merkez,Satilik,11_15_arasi,2,Kombi,bilinmiyor,yok,var,var,var,yok,yok,var,var,yok,yok,var,yok,yok,yok,yok,yok,yok,yok,yok,yok,yok,yok,yok,yok,yok,yok,yok,yok,yok,yok,kademe_4,kotu,normal,bilinmiyor,100_125_m2,4_oda,orta_4_7_kat,1_banyo,yok,dusuk,dusuk,dusuk,orta,yuksek,yok,3_4_Milyon_TL_Arasi
Kastamonu,Merkez,Satilik,0,7,Merkezi,bilinmiyor,yok,var,var,var,yok,var,var,var,yok,yok,var,var,yok,var,yok,yok,yok,yok,var,yok,yok,yok,var,yok,yok,var,yok,yok,yok,yok,kademe_4,bilinmiyor,iyi,kotu,150_200_m2,4_oda,cok_yuksek_16_ustu_kat,2_banyo,dusuk,dusuk,dusuk,orta,yuksek,yuksek,yok,5_7_Bucuk_Milyon_TL_Arasi
Afyonkarahisar,Dinar,Satilik,26_30_arasi,3,Kombi,bilinmiyor,yok,var,yok,var,yok,var,var,var,yok,yok,var,yok,yok,var,yok,yok,yok,yok,yok,yok,yok,yok,yok,yok,yok,var,yok,yok,yok,yok,kademe_4,bilinmiyor,bilinmiyor,bilinmiyor,100_125_m2,3_oda,orta_4_7_kat,1_banyo,yok,yok,yok,dusuk,yok,orta,yok,2_3_Milyon_TL_Arasi
Aksaray,Merkez,Satilik,0,3,Yerden_Isitma,bilinmiyor,yok,yok,yok,var,yok,yok,yok,var,yok,yok,yok,yok,yok,yok,yok,yok,yok,yok,yok,yok,yok,yok,yok,yok,yok,yok,yok,yok,yok,yok,kademe_4,normal,normal,kotu,50_75_m2,2_oda,orta_4_7_kat,1_banyo,yok,yok,yok,yok,yok,yok,yok,1_5_Milyon_TL_Alti
Elazig,Merkez,Satilik,11_15_arasi,1,Kombi,bilinmiyor,yok,var,var,yok,yok,yok,yok,yok,yok,yok,yok,yok,yok,yok,yok,yok,yok,yok,yok,yok,yok,yok,yok,yok,yok,yok,yok,yok,yok,yok,kademe_4,normal,normal,normal,125_150_m2,4_oda,orta_4_7_kat,2_banyo,yok,yok,yok,dusuk,yok,yok,yok,2_3_Milyon_TL_Arasi
Elazig,Merkez,Satilik,16_20_arasi,En_Ust_Kat,Kombi_Dogalgaz,bilinmiyor,yok,yok,yok,yok,yok,yok,yok,yok,yok,yok,yok,yok,yok,yok,yok,yok,yok,yok,yok,yok,yok,yok,yok,yok,yok,yok,yok,yok,yok,yok,kademe_4,kotu,kotu,kotu,300_m2_ve_ustu,7_oda_ve_ustu,orta_4_7_kat,2_banyo,yok,yok,yok,dusuk,yok,yok,yok,4_5_Milyon_TL_Arasi
Aksaray,Merkez,Satilik,0,1,Yerden_Isitma,bilinmiyor,yok,var,var,yok,yok,var,yok,yok,yok,yok,yok,yok,yok,var,yok,yok,yok,yok,yok,yok,yok,yok,yok,yok,yok,var,yok,yok,yok,yok,kademe_4,normal,normal,iyi,0_50_m2,2_oda,orta_4_7_kat,1_banyo,yok,yok,yok,orta,orta,yuksek,yok,1_5_Milyon_TL_Alti
Amasya,Merkez,Satilik,1_5_arasi,1,Kombi,bilinmiyor,yok,var,var,yok,var,yok,yok,yok,yok,yok,yok,yok,yok,yok,yok,yok,yok,yok,yok,yok,yok,yok,yok,yok,yok,yok,yok,yok,yok,yok,kademe_4,normal,normal,bilinmiyor,50_75_m2,2_oda,orta_4_7_kat,1_banyo,yok,yok,yok,dusuk,yok,yok,yok,2_3_Milyon_TL_Arasi
Artvin,Merkez,Satilik,16_20_arasi,3,Kombi_Dogalgaz,bilinmiyor,yok,var,var,var,yok,var,var,var,var,yok,yok,yok,yok,yok,yok,yok,yok,yok,yok,yok,yok,yok,yok,yok,yok,yok,yok,yok,yok,yok,kademe_4,iyi,bilinmiyor,bilinmiyor,150_200_m2,4_oda,orta_4_7_kat,1_banyo,yok,yok,yok,yok,yok,yok,yok,4_5_Milyon_TL_Arasi
Amasya,Merkez,Satilik,0,7,Kombi,bilinmiyor,yok,var,yok,yok,yok,var,var,var,var,yok,var,yok,yok,var,yok,yok,yok,yok,yok,yok,yok,yok,var,yok,yok,var,yok,yok,yok,yok,kademe_4,kotu,normal,kotu,50_75_m2,2_oda,yuksek_8_15_kat,1_banyo,yok,yok,dusuk,orta,yuksek,yuksek,yok,2_3_Milyon_TL_Arasi
Kastamonu,Merkez,Satilik,1_5_arasi,1,Merkezi,bilinmiyor,yok,var,var,var,yok,yok,var,yok,var,yok,var,yok,yok,yok,yok,yok,yok,yok,yok,yok,yok,yok,yok,yok,yok,yok,yok,yok,yok,yok,kademe_4,kotu,bilinmiyor,normal,75_100_m2,3_oda,cok_yuksek_16_ustu_kat,1_banyo,dusuk,yok,yok,dusuk,orta,orta,yok,3_4_Milyon_TL_Arasi
Aksaray,Merkez,Satilik,6_10_arasi,6,Kombi,bilinmiyor,yok,var,var,yok,yok,var,yok,var,yok,yok,yok,yok,yok,yok,yok,yok,yok,yok,yok,yok,yok,yok,yok,yok,yok,var,yok,yok,yok,yok,kademe_4,normal,kotu,bilinmiyor,150_200_m2,4_oda,orta_4_7_kat,1_banyo,dusuk,yok,yok,dusuk,dusuk,dusuk,yok,4_5_Milyon_TL_Arasi
Sivas,Merkez,Satilik,26_30_arasi,Yuksek_Giris,Merkezi,bilinmiyor,yok,var,yok,var,yok,yok,var,var,yok,yok,var,yok,yok,yok,yok,yok,yok,yok,yok,yok,yok,yok,yok,yok,yok,var,yok,yok,yok,yok,kademe_4,normal,normal,bilinmiyor,100_125_m2,3_oda,orta_4_7_kat,1_banyo,yok,yok,yok,dusuk,orta,orta,yok,2_3_Milyon_TL_Arasi
Aksaray,Merkez,Satilik,6_10_arasi,4,Kombi_Dogalgaz,bilinmiyor,yok,var,yok,yok,yok,yok,var,var,yok,yok,yok,yok,yok,yok,yok,yok,yok,yok,yok,yok,yok,yok,yok,yok,yok,yok,yok,yok,yok,yok,kademe_4,iyi,kotu,normal,150_200_m2,4_oda,orta_4_7_kat,1_banyo,yok,yok,yok,yok,yok,yok,yok,4_5_Milyon_TL_Arasi
Afyonkarahisar,Merkez,Satilik,11_15_arasi,Ara_Kat,Soba,bilinmiyor,yok,yok,yok,yok,yok,var,yok,var,yok,yok,yok,yok,yok,yok,yok,yok,yok,yok,yok,yok,yok,yok,yok,yok,yok,yok,yok,yok,yok,yok,kademe_4,normal,kotu,bilinmiyor,125_150_m2,3_oda,orta_4_7_kat,1_banyo,yok,yok,yok,dusuk,yok,yok,yok,2_3_Milyon_TL_Arasi
Amasya,Merzifon,Satilik,1_5_arasi,1,Kombi_Dogalgaz,bilinmiyor,yok,var,var,var,yok,yok,yok,var,yok,yok,var,yok,yok,yok,yok,yok,yok,yok,yok,yok,yok,yok,yok,yok,yok,var,yok,yok,yok,yok,kademe_4,iyi,bilinmiyor,bilinmiyor,100_125_m2,3_oda,orta_4_7_kat,1_banyo,dusuk,yok,yok,dusuk,dusuk,yuksek,yok,3_4_Milyon_TL_Arasi
Amasya,Merzifon,Satilik,6_10_arasi,En_Ust_Kat,Kombi_Dogalgaz,bilinmiyor,yok,var,var,yok,yok,var,var,yok,yok,yok,var,yok,yok,yok,yok,yok,yok,yok,yok,yok,yok,yok,yok,yok,yok,var,var,yok,var,yok,kademe_4,normal,iyi,bilinmiyor,150_200_m2,4_oda,orta_4_7_kat,1_banyo,yok,yok,yok,dusuk,dusuk,yuksek,yok,5_7_Bucuk_Milyon_TL_Arasi
Amasya,Merkez,Satilik,21_25_arasi,5,Kombi,bilinmiyor,yok,var,var,var,yok,yok,yok,yok,yok,yok,var,yok,yok,var,yok,yok,yok,yok,yok,yok,yok,yok,yok,yok,yok,var,yok,yok,yok,yok,kademe_4,normal,normal,bilinmiyor,125_150_m2,4_oda,yuksek_8_15_kat,1_banyo,yok,yok,yok,dusuk,orta,yuksek,yok,4_5_Milyon_TL_Arasi
Kastamonu,Inebolu,Satilik,0,2,Kombi,bilinmiyor,yok,var,var,var,yok,yok,var,var,var,yok,var,yok,yok,var,yok,yok,yok,yok,yok,yok,yok,yok,var,yok,yok,var,yok,yok,yok,yok,kademe_4,iyi,bilinmiyor,bilinmiyor,75_100_m2,3_oda,orta_4_7_kat,1_banyo,dusuk,yok,yok,dusuk,orta,yuksek,yok,4_5_Milyon_TL_Arasi
Kastamonu,Merkez,Satilik,6_10_arasi,Bodrum,Merkezi,bilinmiyor,yok,yok,var,var,var,yok,var,yok,yok,yok,var,yok,yok,var,yok,yok,yok,yok,yok,yok,yok,yok,yok,yok,yok,yok,yok,yok,yok,yok,kademe_4,normal,normal,bilinmiyor,50_75_m2,2_oda,yuksek_8_15_kat,1_banyo,dusuk,yok,dusuk,orta,yuksek,yuksek,yok,1_5_2_Milyon_TL_Arasi
Afyonkarahisar,Merkez,Satilik,26_30_arasi,1,Kombi,bilinmiyor,yok,var,yok,yok,yok,yok,var,yok,yok,yok,var,yok,yok,yok,yok,yok,yok,yok,yok,yok,yok,yok,yok,yok,yok,yok,yok,yok,yok,yok,kademe_4,normal,kotu,kotu,100_125_m2,4_oda,orta_4_7_kat,1_banyo,yok,yok,dusuk,dusuk,orta,dusuk,yok,2_3_Milyon_TL_Arasi
Kastamonu,Merkez,Satilik,1_5_arasi,2,Merkezi,bilinmiyor,yok,var,var,var,yok,yok,var,var,yok,yok,var,var,yok,var,yok,yok,yok,yok,yok,yok,yok,yok,var,yok,yok,var,yok,yok,yok,yok,kademe_4,bilinmiyor,bilinmiyor,bilinmiyor,125_150_m2,4_oda,cok_yuksek_16_ustu_kat,2_banyo,dusuk,dusuk,dusuk,orta,yuksek,yuksek,yok,4_5_Milyon_TL_Arasi
Kastamonu,Agli,Satilik,1_5_arasi,4,Kombi_Dogalgaz,bilinmiyor,yok,var,var,yok,yok,yok,yok,yok,var,yok,var,var,yok,var,yok,yok,yok,yok,yok,yok,yok,yok,yok,yok,yok,yok,yok,yok,yok,yok,kademe_4,iyi,bilinmiyor,bilinmiyor,125_150_m2,3_oda,orta_4_7_kat,2_banyo,dusuk,yok,yok,dusuk,dusuk,yuksek,yok,3_4_Milyon_TL_Arasi
Aksaray,Merkez,Satilik,1_5_arasi,Yuksek_Giris,Kombi_Dogalgaz,bilinmiyor,yok,yok,yok,yok,yok,yok,yok,yok,yok,yok,yok,yok,yok,yok,yok,yok,yok,yok,yok,yok,yok,yok,yok,yok,yok,yok,yok,yok,yok,yok,kademe_4,iyi,normal,kotu,100_125_m2,4_oda,orta_4_7_kat,1_banyo,yok,yok,yok,dusuk,yok,yok,yok,3_4_Milyon_TL_Arasi
Amasya,Merzifon,Satilik,0,2,Kombi,bilinmiyor,yok,var,var,var,yok,yok,var,var,yok,yok,yok,yok,yok,yok,yok,yok,yok,yok,yok,yok,yok,yok,yok,yok,yok,yok,yok,yok,yok,yok,kademe_4,bilinmiyor,bilinmiyor,bilinmiyor,150_200_m2,4_oda,orta_4_7_kat,2_banyo,yok,yok,yok,dusuk,yok,yok,yok,3_4_Milyon_TL_Arasi
Artvin,Hopa,Satilik,16_20_arasi,1,bilinmiyor,bilinmiyor,yok,var,yok,yok,yok,yok,yok,yok,yok,yok,yok,yok,yok,yok,yok,yok,yok,yok,yok,yok,yok,yok,yok,yok,yok,yok,yok,yok,yok,yok,kademe_4,bilinmiyor,bilinmiyor,bilinmiyor,125_150_m2,4_oda,alcak_1_3_kat,1_banyo,yok,yok,yok,dusuk,yok,yok,yok,3_4_Milyon_TL_Arasi
Amasya,Merkez,Satilik,0,5,Kombi,bilinmiyor,yok,var,yok,var,yok,yok,yok,yok,yok,yok,var,yok,yok,var,yok,yok,yok,yok,yok,yok,yok,yok,yok,yok,yok,yok,yok,yok,yok,yok,kademe_4,kotu,normal,iyi,50_75_m2,2_oda,orta_4_7_kat,1_banyo,dusuk,yok,yok,dusuk,orta,orta,yok,2_3_Milyon_TL_Arasi
Elazig,Merkez,Satilik,1_5_arasi,3,Kombi,bilinmiyor,yok,var,var,var,yok,yok,yok,yok,yok,yok,yok,var,yok,yok,yok,yok,yok,yok,yok,yok,yok,yok,yok,yok,yok,yok,yok,yok,yok,yok,kademe_4,iyi,bilinmiyor,bilinmiyor,150_200_m2,5_oda,yuksek_8_15_kat,2_banyo,dusuk,dusuk,dusuk,orta,yuksek,orta,yok,5_7_Bucuk_Milyon_TL_Arasi
Amasya,Merzifon,Satilik,26_30_arasi,5,Kombi_Dogalgaz,bilinmiyor,yok,var,var,yok,yok,var,var,yok,yok,yok,yok,yok,yok,var,yok,yok,yok,yok,yok,yok,yok,yok,yok,yok,yok,yok,yok,yok,yok,yok,kademe_4,normal,kotu,kotu,150_200_m2,4_oda,orta_4_7_kat,1_banyo,dusuk,yok,yok,dusuk,yok,orta,yok,2_3_Milyon_TL_Arasi
Aksaray,Merkez,Satilik,1_5_arasi,Yuksek_Giris,Kombi,bilinmiyor,yok,var,var,yok,var,yok,yok,var,yok,yok,yok,yok,yok,yok,yok,yok,yok,yok,yok,yok,yok,yok,yok,yok,yok,var,yok,yok,yok,yok,kademe_4,kotu,normal,kotu,50_75_m2,2_oda,orta_4_7_kat,1_banyo,yok,yok,yok,dusuk,dusuk,dusuk,yok,1_5_Milyon_TL_Alti
Afyonkarahisar,Merkez,Satilik,21_25_arasi,3,Kombi,bilinmiyor,yok,var,var,var,yok,var,var,var,yok,yok,yok,yok,yok,yok,yok,yok,yok,yok,yok,yok,yok,yok,yok,yok,yok,yok,yok,yok,yok,yok,kademe_4,iyi,iyi,bilinmiyor,125_150_m2,4_oda,orta_4_7_kat,1_banyo,yok,yok,yok,dusuk,yok,yok,yok,2_3_Milyon_TL_Arasi
Amasya,Merkez,Satilik,16_20_arasi,Kot_3,Dogalgaz_Sobasi,bilinmiyor,yok,var,yok,yok,var,yok,yok,var,var,yok,var,yok,yok,var,yok,yok,yok,yok,yok,yok,yok,yok,yok,yok,yok,yok,yok,yok,yok,yok,kademe_4,bilinmiyor,normal,bilinmiyor,100_125_m2,3_oda,orta_4_7_kat,1_banyo,yok,yok,yok,orta,yok,yuksek,yok,2_3_Milyon_TL_Arasi
Elazig,Karakocan,Satilik,0,2,Kombi,bilinmiyor,yok,var,var,yok,var,yok,var,var,yok,yok,var,yok,yok,var,yok,yok,yok,yok,yok,yok,yok,yok,var,yok,yok,yok,yok,yok,yok,yok,kademe_4,kotu,iyi,bilinmiyor,50_75_m2,2_oda,orta_4_7_kat,1_banyo,dusuk,yok,dusuk,dusuk,orta,yuksek,yok,3_4_Milyon_TL_Arasi
Amasya,Merzifon,Satilik,11_15_arasi,En_Ust_Kat,Kombi_Dogalgaz,bilinmiyor,yok,yok,yok,yok,yok,var,yok,yok,var,yok,var,yok,yok,yok,yok,yok,yok,yok,yok,yok,yok,yok,var,yok,yok,yok,yok,yok,yok,yok,kademe_4,normal,normal,iyi,100_125_m2,2_oda,orta_4_7_kat,1_banyo,yok,yok,yok,dusuk,dusuk,yuksek,yok,1_5_2_Milyon_TL_Arasi
Sivas,Merkez,Satilik,11_15_arasi,En_Ust_Kat,Kombi_Dogalgaz,bilinmiyor,yok,yok,var,var,yok,var,var,yok,yok,yok,yok,yok,yok,yok,yok,yok,yok,yok,yok,yok,yok,yok,yok,yok,yok,yok,yok,yok,var,yok,kademe_4,normal,bilinmiyor,iyi,200_300_m2,7_oda_ve_ustu,orta_4_7_kat,2_banyo,yok,yok,yok,yok,yok,yok,yok,4_5_Milyon_TL_Arasi
Kastamonu,Inebolu,Satilik,6_10_arasi,6,Merkezi,bilinmiyor,yok,var,var,yok,yok,yok,yok,yok,yok,yok,yok,yok,yok,yok,yok,yok,yok,yok,yok,yok,yok,yok,yok,yok,yok,yok,yok,yok,yok,yok,kademe_4,bilinmiyor,bilinmiyor,bilinmiyor,150_200_m2,5_oda,orta_4_7_kat,3_banyo_ve_ustu,yok,yok,yok,dusuk,yok,yok,yok,7_Bucuk_10_Milyon_TL_Arasi
Aksaray,Merkez,Satilik,0,2,Kombi,bilinmiyor,yok,var,yok,yok,var,yok,var,var,yok,yok,yok,yok,yok,yok,yok,yok,yok,yok,yok,yok,yok,yok,var,yok,yok,var,yok,yok,yok,yok,kademe_4,normal,kotu,bilinmiyor,50_75_m2,2_oda,orta_4_7_kat,1_banyo,yok,yok,yok,orta,orta,orta,yok,2_3_Milyon_TL_Arasi
Kirsehir,Merkez,Satilik,0,4,Kombi,bilinmiyor,yok,var,yok,yok,yok,yok,yok,yok,yok,yok,yok,yok,yok,yok,yok,yok,yok,yok,yok,yok,yok,yok,yok,yok,yok,yok,yok,yok,yok,yok,kademe_4,iyi,bilinmiyor,iyi,125_150_m2,4_oda,orta_4_7_kat,1_banyo,yok,yok,yok,dusuk,yok,yok,yok,4_5_Milyon_TL_Arasi
Aksaray,Merkez,Satilik,1_5_arasi,Bahce,Soba,bilinmiyor,yok,yok,yok,var,yok,var,var,var,var,yok,var,yok,yok,var,yok,yok,yok,yok,yok,yok,yok,yok,var,yok,yok,yok,yok,yok,yok,yok,kademe_4,normal,normal,bilinmiyor,125_150_m2,3_oda,alcak_1_3_kat,1_banyo,yok,yok,yok,dusuk,yok,yuksek,yok,5_7_Bucuk_Milyon_TL_Arasi
Kastamonu,Merkez,Satilik,0,3,Kombi,bilinmiyor,yok,var,var,var,yok,var,yok,yok,yok,yok,var,var,yok,yok,yok,yok,yok,yok,yok,yok,yok,yok,var,yok,yok,yok,yok,yok,yok,yok,kademe_4,iyi,iyi,bilinmiyor,75_100_m2,3_oda,orta_4_7_kat,2_banyo,dusuk,yok,yok,orta,yok,yuksek,yok,3_4_Milyon_TL_Arasi
Kirsehir,Merkez,Satilik,26_30_arasi,1,Soba,bilinmiyor,yok,var,yok,var,yok,yok,yok,yok,yok,yok,yok,yok,yok,yok,yok,yok,yok,yok,yok,yok,yok,yok,yok,yok,yok,yok,yok,yok,yok,yok,kademe_4,kotu,bilinmiyor,kotu,150_200_m2,4_oda,orta_4_7_kat,1_banyo,yok,yok,yok,dusuk,yok,yok,yok,2_3_Milyon_TL_Arasi
Afyonkarahisar,Ihsaniye,Satilik,0,Bahce,Jeotermal,bilinmiyor,yok,yok,yok,var,yok,yok,yok,var,yok,yok,yok,yok,yok,yok,yok,yok,yok,yok,yok,yok,yok,yok,var,yok,yok,yok,yok,yok,yok,yok,kademe_4,kotu,normal,kotu,75_100_m2,3_oda,alcak_1_3_kat,1_banyo,yok,dusuk,yok,dusuk,dusuk,yok,yok,2_3_Milyon_TL_Arasi
Kastamonu,Merkez,Satilik,0,3,Kombi,bilinmiyor,yok,var,var,var,yok,yok,var,var,yok,yok,var,yok,yok,var,yok,yok,yok,yok,yok,yok,yok,yok,var,yok,yok,var,yok,yok,yok,yok,kademe_4,bilinmiyor,bilinmiyor,bilinmiyor,50_75_m2,3_oda,orta_4_7_kat,1_banyo,dusuk,yok,dusuk,orta,yuksek,yuksek,yok,2_3_Milyon_TL_Arasi
Amasya,Merzifon,Satilik,0,3,Kombi_Dogalgaz,bilinmiyor,yok,yok,yok,yok,yok,var,yok,yok,var,yok,yok,yok,yok,yok,yok,yok,yok,yok,yok,yok,yok,yok,yok,yok,yok,yok,yok,yok,yok,yok,kademe_4,kotu,bilinmiyor,kotu,75_100_m2,3_oda,orta_4_7_kat,1_banyo,yok,yok,yok,dusuk,yok,yok,yok,2_3_Milyon_TL_Arasi
Amasya,Merzifon,Satilik,16_20_arasi,1,Kombi_Dogalgaz,bilinmiyor,yok,yok,yok,yok,yok,var,var,var,yok,yok,yok,yok,yok,yok,yok,yok,yok,yok,yok,yok,yok,yok,yok,yok,yok,yok,yok,yok,yok,yok,kademe_4,bilinmiyor,kotu,bilinmiyor,100_125_m2,3_oda,orta_4_7_kat,1_banyo,yok,yok,yok,dusuk,yok,yok,yok,2_3_Milyon_TL_Arasi
Aksaray,Merkez,Satilik,0,Yuksek_Giris,Kombi_Dogalgaz,bilinmiyor,yok,yok,yok,yok,var,var,var,var,yok,yok,yok,yok,yok,yok,yok,yok,yok,yok,yok,yok,yok,yok,yok,yok,yok,yok,yok,yok,yok,yok,kademe_4,normal,bilinmiyor,kotu,50_75_m2,2_oda,orta_4_7_kat,1_banyo,yok,yok,yok,dusuk,yok,yok,yok,1_5_Milyon_TL_Alti
Afyonkarahisar,Merkez,Satilik,6_10_arasi,4,Kombi_Dogalgaz,bilinmiyor,yok,yok,var,yok,var,yok,var,var,yok,yok,yok,yok,yok,yok,yok,yok,yok,yok,yok,yok,yok,yok,yok,yok,yok,yok,yok,yok,yok,yok,kademe_4,normal,normal,normal,50_75_m2,2_oda,orta_4_7_kat,1_banyo,yok,yok,yok,dusuk,yok,yok,yok,3_4_Milyon_TL_Arasi
Aksaray,Merkez,Satilik,16_20_arasi,3,Merkezi,bilinmiyor,yok,var,var,yok,yok,yok,var,yok,yok,yok,var,yok,yok,yok,yok,yok,yok,yok,yok,yok,yok,yok,yok,yok,yok,yok,yok,yok,yok,yok,kademe_4,normal,kotu,bilinmiyor,150_200_m2,4_oda,yuksek_8_15_kat,1_banyo,yok,yok,yok,yok,yok,orta,yok,3_4_Milyon_TL_Arasi
Elazig,Merkez,Satilik,1_5_arasi,1,Kombi,bilinmiyor,yok,var,var,var,yok,var,var,yok,yok,yok,var,var,yok,yok,yok,yok,yok,yok,yok,yok,yok,yok,yok,yok,yok,yok,yok,yok,yok,yok,kademe_4,normal,iyi,bilinmiyor,150_200_m2,4_oda,orta_4_7_kat,2_banyo,yok,yok,yok,dusuk,orta,orta,yok,3_4_Milyon_TL_Arasi
Amasya,Merzifon,Satilik,6_10_arasi,En_Ust_Kat,belirtilmemis_dogalgaz,bilinmiyor,yok,yok,var,yok,yok,var,yok,yok,yok,yok,var,yok,yok,var,yok,yok,yok,yok,yok,yok,yok,yok,yok,yok,yok,yok,yok,yok,yok,yok,kademe_4,kotu,normal,normal,0_50_m2,2_oda,orta_4_7_kat,1_banyo,dusuk,yok,yok,dusuk,yok,yuksek,yok,1_5_Milyon_TL_Alti
Amasya,Merzifon,Satilik,16_20_arasi,4,Kombi,bilinmiyor,yok,var,yok,yok,yok,var,yok,var,yok,yok,var,yok,yok,var,yok,yok,yok,yok,yok,yok,yok,yok,yok,yok,yok,var,yok,yok,yok,yok,kademe_4,kotu,bilinmiyor,kotu,125_150_m2,4_oda,orta_4_7_kat,1_banyo,yok,yok,yok,dusuk,yok,orta,yok,2_3_Milyon_TL_Arasi
Aksaray,Merkez,Satilik,1_5_arasi,3,Kombi_Dogalgaz,bilinmiyor,yok,var,var,var,yok,var,yok,var,yok,yok,yok,yok,yok,yok,yok,yok,yok,yok,yok,yok,yok,yok,yok,yok,yok,yok,yok,yok,yok,yok,kademe_4,iyi,bilinmiyor,bilinmiyor,100_125_m2,3_oda,orta_4_7_kat,1_banyo,yok,yok,yok,dusuk,yok,yok,yok,3_4_Milyon_TL_Arasi
Aksaray,Merkez,Satilik,1_5_arasi,Yuksek_Giris,Kombi,bilinmiyor,yok,var,var,yok,var,yok,yok,yok,yok,yok,yok,yok,yok,yok,yok,yok,yok,yok,yok,yok,yok,yok,yok,yok,yok,yok,yok,yok,yok,yok,kademe_4,normal,normal,iyi,0_50_m2,2_oda,orta_4_7_kat,1_banyo,yok,yok,yok,dusuk,yok,yok,yok,1_5_Milyon_TL_Alti
Afyonkarahisar,Ihsaniye,Satilik,1_5_arasi,Ara_Kat,Gunes_Enerjisi,bilinmiyor,yok,var,yok,yok,var,var,var,yok,yok,yok,yok,yok,yok,yok,yok,yok,yok,yok,yok,yok,yok,yok,yok,yok,yok,yok,yok,yok,yok,yok,kademe_4,normal,normal,bilinmiyor,50_75_m2,2_oda,orta_4_7_kat,1_banyo,yok,yok,yok,dusuk,dusuk,yok,yok,1_5_2_Milyon_TL_Arasi
Aksaray,Merkez,Satilik,0,3,Kombi,bilinmiyor,yok,var,var,yok,yok,var,var,var,yok,yok,yok,yok,yok,yok,yok,yok,yok,yok,yok,yok,yok,yok,yok,yok,yok,yok,yok,yok,yok,yok,kademe_4,bilinmiyor,iyi,normal,100_125_m2,3_oda,orta_4_7_kat,1_banyo,yok,yok,yok,dusuk,yok,yok,yok,4_5_Milyon_TL_Arasi
Sivas,Merkez,Satilik,1_5_arasi,4,Kombi,bilinmiyor,yok,var,var,var,yok,var,yok,var,yok,yok,yok,yok,yok,yok,yok,yok,yok,yok,yok,yok,yok,yok,yok,yok,yok,yok,yok,yok,yok,yok,kademe_4,normal,normal,bilinmiyor,100_125_m2,4_oda,yuksek_8_15_kat,1_banyo,yok,yok,yok,dusuk,yok,yok,yok,3_4_Milyon_TL_Arasi
Amasya,Merzifon,Satilik,6_10_arasi,1,Kombi_Dogalgaz,bilinmiyor,yok,var,var,var,yok,yok,var,var,yok,yok,var,yok,yok,var,yok,yok,yok,yok,yok,yok,yok,yok,yok,yok,yok,var,yok,yok,yok,yok,kademe_4,iyi,normal,bilinmiyor,125_150_m2,3_oda,orta_4_7_kat,3_banyo_ve_ustu,yok,yok,yok,dusuk,yok,yuksek,yok,3_4_Milyon_TL_Arasi
Sivas,Merkez,Satilik,26_30_arasi,3,Kombi,bilinmiyor,yok,var,yok,var,yok,yok,yok,yok,yok,yok,yok,yok,yok,yok,yok,yok,yok,yok,yok,yok,yok,yok,yok,yok,yok,yok,yok,yok,yok,yok,kademe_4,iyi,bilinmiyor,bilinmiyor,100_125_m2,3_oda,orta_4_7_kat,1_banyo,yok,yok,yok,dusuk,yok,yok,yok,2_3_Milyon_TL_Arasi
Artvin,Murgul,Satilik,21_25_arasi,7,isitma_yok,bilinmiyor,yok,var,var,var,yok,var,var,var,var,yok,yok,yok,yok,yok,yok,yok,yok,yok,yok,yok,yok,yok,var,yok,yok,var,yok,yok,yok,yok,kademe_4,bilinmiyor,bilinmiyor,bilinmiyor,150_200_m2,5_oda,yuksek_8_15_kat,1_banyo,yok,yok,yok,dusuk,yuksek,yok,yok,2_3_Milyon_TL_Arasi
Kastamonu,Merkez,Satilik,1_5_arasi,2,Merkezi,bilinmiyor,yok,var,yok,yok,yok,var,yok,var,yok,yok,var,var,yok,var,yok,yok,yok,yok,yok,yok,yok,yok,yok,yok,yok,var,yok,yok,yok,yok,kademe_4,iyi,iyi,bilinmiyor,100_125_m2,3_oda,yuksek_8_15_kat,2_banyo,dusuk,yok,dusuk,orta,yuksek,yuksek,yok,4_5_Milyon_TL_Arasi
Kastamonu,Inebolu,Satilik,21_25_arasi,Zemin,Kombi_Dogalgaz,bilinmiyor,yok,yok,yok,yok,yok,yok,yok,yok,yok,yok,yok,yok,yok,yok,yok,yok,yok,yok,yok,yok,yok,yok,yok,yok,yok,yok,yok,yok,yok,yok,kademe_4,normal,normal,bilinmiyor,75_100_m2,3_oda,orta_4_7_kat,1_banyo,yok,yok,yok,dusuk,dusuk,yok,yok,2_3_Milyon_TL_Arasi
Afyonkarahisar,Merkez,Satilik,0,1,Kombi,bilinmiyor,yok,var,var,var,yok,yok,yok,yok,yok,yok,yok,yok,yok,yok,yok,yok,yok,yok,yok,yok,yok,yok,yok,yok,yok,yok,yok,yok,yok,yok,kademe_4,normal,bilinmiyor,iyi,150_200_m2,5_oda,alcak_1_3_kat,2_banyo,yok,yok,yok,dusuk,yok,yok,yok,5_7_Bucuk_Milyon_TL_Arasi
Elazig,Merkez,Satilik,21_25_arasi,4,Kombi_Dogalgaz,bilinmiyor,yok,yok,yok,yok,yok,var,var,var,var,yok,yok,yok,yok,yok,yok,yok,yok,yok,yok,yok,yok,yok,yok,yok,yok,yok,yok,yok,yok,yok,kademe_4,normal,bilinmiyor,bilinmiyor,200_300_m2,5_oda,orta_4_7_kat,2_banyo,yok,yok,yok,dusuk,yok,yok,yok,3_4_Milyon_TL_Arasi
Amasya,Merzifon,Satilik,0,1,Kombi_Dogalgaz,bilinmiyor,yok,var,yok,yok,yok,var,yok,var,var,yok,yok,yok,yok,yok,yok,yok,yok,yok,yok,yok,yok,yok,yok,yok,yok,yok,yok,yok,yok,yok,kademe_4,iyi,normal,iyi,50_75_m2,2_oda,orta_4_7_kat,1_banyo,yok,yok,yok,dusuk,yok,yok,yok,2_3_Milyon_TL_Arasi
Kastamonu,Merkez,Satilik,6_10_arasi,4,Kombi,bilinmiyor,yok,var,var,var,var,yok,var,yok,var,yok,var,yok,yok,yok,yok,yok,yok,yok,yok,yok,yok,yok,yok,yok,yok,var,yok,yok,yok,yok,kademe_4,normal,normal,kotu,75_100_m2,3_oda,orta_4_7_kat,1_banyo,yok,yok,yok,dusuk,orta,orta,yok,3_4_Milyon_TL_Arasi
Amasya,Merzifon,Satilik,6_10_arasi,4,Yerden_Isitma,bilinmiyor,yok,var,yok,var,yok,yok,yok,var,yok,yok,var,yok,yok,yok,yok,yok,yok,yok,yok,yok,yok,yok,var,var,yok,var,yok,yok,yok,yok,kademe_4,normal,kotu,bilinmiyor,300_m2_ve_ustu,7_oda_ve_ustu,orta_4_7_kat,2_banyo,yok,dusuk,yok,dusuk,orta,yuksek,yok,10_Milyon_TL_Ustu
Kastamonu,Inebolu,Satilik,11_15_arasi,Yuksek_Giris,Kombi_Dogalgaz,bilinmiyor,yok,yok,yok,yok,yok,yok,yok,yok,yok,yok,yok,yok,yok,yok,yok,yok,yok,yok,yok,yok,yok,yok,yok,yok,yok,yok,yok,yok,yok,yok,kademe_4,kotu,bilinmiyor,bilinmiyor,75_100_m2,3_oda,orta_4_7_kat,1_banyo,yok,yok,yok,dusuk,yok,yok,yok,3_4_Milyon_TL_Arasi
Artvin,Arhavi,Satilik,1_5_arasi,6,Merkezi,bilinmiyor,yok,yok,yok,yok,yok,yok,yok,yok,var,yok,yok,yok,yok,yok,yok,yok,yok,yok,yok,yok,yok,yok,yok,yok,yok,yok,var,yok,yok,yok,kademe_4,kotu,normal,bilinmiyor,75_100_m2,5_oda,orta_4_7_kat,2_banyo,yok,yok,yok,dusuk,yok,yok,yok,5_7_Bucuk_Milyon_TL_Arasi
Afyonkarahisar,Merkez,Satilik,11_15_arasi,5,Kombi,bilinmiyor,yok,var,yok,var,yok,var,var,var,yok,yok,yok,yok,yok,yok,yok,yok,yok,yok,yok,yok,yok,yok,yok,yok,yok,yok,yok,yok,yok,yok,kademe_4,normal,kotu,bilinmiyor,150_200_m2,5_oda,orta_4_7_kat,2_banyo,yok,yok,yok,dusuk,yok,yok,yok,3_4_Milyon_TL_Arasi
Aksaray,Merkez,Satilik,6_10_arasi,3,Kombi,bilinmiyor,yok,var,var,var,yok,yok,yok,yok,yok,yok,yok,yok,yok,yok,yok,yok,yok,yok,yok,yok,yok,yok,yok,yok,yok,yok,yok,yok,yok,yok,kademe_4,iyi,normal,kotu,75_100_m2,3_oda,orta_4_7_kat,1_banyo,yok,yok,yok,dusuk,yok,dusuk,yok,2_3_Milyon_TL_Arasi
Amasya,Merkez,Satilik,6_10_arasi,3,Kombi_Dogalgaz,bilinmiyor,yok,var,var,yok,yok,yok,var,var,yok,yok,var,yok,yok,yok,yok,yok,yok,yok,yok,yok,yok,yok,yok,yok,yok,var,yok,yok,yok,yok,kademe_4,normal,normal,bilinmiyor,150_200_m2,4_oda,orta_4_7_kat,2_banyo,yok,yok,yok,dusuk,yok,orta,yok,5_7_Bucuk_Milyon_TL_Arasi
Kirsehir,Merkez,Satilik,0,3,Merkezi,bilinmiyor,yok,var,yok,var,yok,yok,yok,yok,yok,yok,yok,yok,yok,yok,yok,yok,yok,yok,yok,yok,yok,yok,yok,yok,yok,yok,yok,yok,yok,yok,kademe_4,iyi,iyi,bilinmiyor,125_150_m2,4_oda,yuksek_8_15_kat,2_banyo,yok,yok,yok,dusuk,yok,yok,yok,5_7_Bucuk_Milyon_TL_Arasi
Kastamonu,Inebolu,Satilik,31_ve_uzeri,bilinmiyor,Soba,bilinmiyor,yok,yok,yok,yok,yok,yok,yok,yok,yok,yok,yok,yok,yok,yok,yok,yok,yok,yok,yok,yok,yok,yok,yok,yok,yok,yok,yok,yok,yok,yok,kademe_4,bilinmiyor,bilinmiyor,bilinmiyor,150_200_m2,6_oda,alcak_1_3_kat,1_banyo,yok,yok,yok,dusuk,dusuk,yok,yok,5_7_Bucuk_Milyon_TL_Arasi
Amasya,Merzifon,Satilik,26_30_arasi,3,belirtilmemis_dogalgaz,bilinmiyor,yok,yok,yok,yok,yok,yok,yok,var,yok,yok,yok,yok,yok,yok,yok,yok,yok,yok,yok,yok,yok,yok,yok,yok,yok,var,yok,yok,yok,yok,kademe_4,bilinmiyor,kotu,bilinmiyor,200_300_m2,3_oda,orta_4_7_kat,1_banyo,yok,yok,yok,dusuk,yok,yok,yok,5_7_Bucuk_Milyon_TL_Arasi
Aksaray,Agacoren,Satilik,31_ve_uzeri,4,Kombi,bilinmiyor,yok,yok,yok,yok,yok,yok,yok,yok,yok,yok,yok,yok,yok,yok,yok,yok,yok,yok,yok,yok,yok,yok,yok,yok,yok,yok,yok,yok,yok,yok,kademe_4,bilinmiyor,bilinmiyor,bilinmiyor,100_125_m2,4_oda,orta_4_7_kat,1_banyo,yok,yok,yok,dusuk,yok,yok,yok,1_5_2_Milyon_TL_Arasi
Elazig,Merkez,Satilik,31_ve_uzeri,5,Kombi,bilinmiyor,yok,var,yok,var,yok,yok,yok,yok,yok,yok,yok,yok,yok,yok,yok,yok,yok,yok,yok,yok,yok,yok,yok,yok,yok,yok,yok,yok,yok,yok,kademe_4,normal,kotu,kotu,150_200_m2,4_oda,orta_4_7_kat,1_banyo,yok,yok,yok,dusuk,yok,dusuk,yok,1_5_Milyon_TL_Alti
Afyonkarahisar,Sultandagi,Satilik,31_ve_uzeri,bilinmiyor,Soba,bilinmiyor,yok,yok,yok,yok,yok,yok,yok,yok,yok,yok,yok,yok,yok,yok,yok,yok,yok,yok,yok,yok,yok,yok,yok,yok,yok,yok,yok,yok,yok,yok,kademe_4,bilinmiyor,bilinmiyor,bilinmiyor,100_125_m2,2_oda,alcak_1_3_kat,1_banyo,yok,yok,yok,dusuk,yok,yok,yok,1_5_Milyon_TL_Alti
Afyonkarahisar,Merkez,Satilik,0,2,Kombi,bilinmiyor,yok,var,var,var,yok,var,var,yok,yok,yok,var,yok,yok,yok,yok,yok,yok,yok,yok,yok,yok,yok,yok,yok,yok,var,yok,yok,yok,yok,kademe_4,kotu,normal,kotu,100_125_m2,3_oda,orta_4_7_kat,2_banyo,yok,yok,yok,orta,orta,dusuk,yok,4_5_Milyon_TL_Arasi
Aksaray,Merkez,Satilik,0,2,Kombi,bilinmiyor,yok,var,yok,var,yok,var,var,var,yok,yok,yok,yok,yok,yok,yok,yok,yok,yok,yok,yok,yok,yok,yok,yok,yok,yok,yok,yok,yok,yok,kademe_4,iyi,bilinmiyor,iyi,150_200_m2,4_oda,orta_4_7_kat,2_banyo,yok,yok,yok,dusuk,yok,yok,yok,4_5_Milyon_TL_Arasi
Amasya,Merzifon,Satilik,1_5_arasi,1,Kombi_Dogalgaz,bilinmiyor,yok,var,var,var,yok,yok,yok,var,yok,yok,var,yok,yok,var,yok,yok,yok,yok,yok,yok,yok,yok,yok,yok,yok,var,yok,yok,yok,yok,kademe_4,kotu,normal,bilinmiyor,50_75_m2,2_oda,orta_4_7_kat,1_banyo,dusuk,yok,yok,dusuk,dusuk,yuksek,yok,1_5_2_Milyon_TL_Arasi
Aksaray,Merkez,Satilik,11_15_arasi,2,Kombi,bilinmiyor,yok,var,yok,yok,yok,var,var,var,var,yok,yok,yok,yok,yok,yok,yok,yok,yok,yok,yok,yok,yok,yok,yok,yok,yok,yok,yok,yok,yok,kademe_4,normal,normal,normal,150_200_m2,4_oda,alcak_1_3_kat,1_banyo,yok,yok,yok,dusuk,yok,yok,yok,10_Milyon_TL_Ustu
Amasya,Merzifon,Satilik,0,2,Kombi,bilinmiyor,yok,var,yok,var,yok,var,yok,yok,var,yok,var,yok,yok,var,yok,yok,yok,yok,yok,yok,yok,yok,var,yok,yok,var,yok,yok,yok,yok,kademe_4,bilinmiyor,bilinmiyor,iyi,50_75_m2,2_oda,orta_4_7_kat,1_banyo,yok,yok,dusuk,orta,yuksek,yuksek,yok,2_3_Milyon_TL_Arasi
Amasya,Merzifon,Satilik,0,4,Kombi,bilinmiyor,yok,var,yok,yok,yok,yok,var,var,yok,yok,yok,yok,yok,yok,yok,yok,yok,yok,yok,yok,yok,yok,yok,yok,yok,yok,yok,yok,yok,yok,kademe_4,bilinmiyor,normal,bilinmiyor,75_100_m2,2_oda,orta_4_7_kat,1_banyo,yok,yok,yok,dusuk,yok,yok,yok,2_3_Milyon_TL_Arasi
Amasya,Merkez,Satilik,0,Ara_Kat,Kombi_Dogalgaz,bilinmiyor,yok,var,yok,yok,yok,yok,yok,yok,yok,yok,yok,yok,yok,yok,yok,yok,yok,yok,yok,yok,yok,yok,yok,yok,yok,yok,yok,yok,yok,yok,kademe_4,normal,bilinmiyor,bilinmiyor,100_125_m2,3_oda,orta_4_7_kat,1_banyo,yok,yok,yok,dusuk,yok,yok,yok,3_4_Milyon_TL_Arasi
Kastamonu,Merkez,Satilik,1_5_arasi,12,Merkezi,bilinmiyor,yok,yok,var,yok,yok,yok,yok,var,yok,yok,yok,yok,yok,yok,yok,yok,yok,yok,yok,yok,yok,yok,yok,yok,yok,yok,yok,yok,yok,yok,kademe_4,bilinmiyor,bilinmiyor,bilinmiyor,75_100_m2,3_oda,cok_yuksek_16_ustu_kat,1_banyo,yok,yok,yok,dusuk,yok,yok,yok,4_5_Milyon_TL_Arasi
Elazig,Merkez,Satilik,0,Ara_Kat,Kombi_Dogalgaz,bilinmiyor,yok,yok,yok,var,yok,var,var,var,var,yok,yok,yok,yok,yok,yok,yok,yok,yok,yok,yok,yok,yok,yok,yok,yok,var,yok,yok,yok,yok,kademe_4,bilinmiyor,bilinmiyor,normal,200_300_m2,5_oda,cok_yuksek_16_ustu_kat,2_banyo,yok,yok,yok,orta,orta,yok,yok,4_5_Milyon_TL_Arasi
Amasya,Merkez,Satilik,0,2,Yerden_Isitma,bilinmiyor,yok,var,yok,yok,yok,yok,yok,var,yok,yok,var,yok,yok,yok,yok,yok,yok,yok,yok,yok,yok,yok,yok,yok,yok,var,yok,yok,yok,yok,kademe_4,iyi,normal,bilinmiyor,50_75_m2,2_oda,orta_4_7_kat,1_banyo,yok,yok,dusuk,dusuk,orta,orta,yok,2_3_Milyon_TL_Arasi
Sivas,Gemerek,Satilik,6_10_arasi,Zemin,Kombi,bilinmiyor,yok,var,yok,var,yok,var,var,yok,var,yok,yok,yok,yok,yok,yok,yok,yok,yok,yok,yok,yok,yok,yok,yok,yok,yok,yok,yok,yok,yok,kademe_4,normal,kotu,iyi,100_125_m2,3_oda,orta_4_7_kat,1_banyo,yok,yok,yok,dusuk,yok,yok,yok,1_5_2_Milyon_TL_Arasi
Afyonkarahisar,Sinanpasa,Satilik,1_5_arasi,bilinmiyor,Kombi_Dogalgaz,bilinmiyor,yok,yok,yok,var,var,var,var,yok,yok,yok,yok,yok,yok,yok,yok,yok,yok,yok,yok,yok,yok,yok,yok,yok,yok,yok,yok,var,yok,yok,kademe_4,bilinmiyor,bilinmiyor,bilinmiyor,150_200_m2,5_oda,orta_4_7_kat,2_banyo,yok,yok,yok,dusuk,yok,yok,yok,10_Milyon_TL_Ustu
Elazig,Merkez,Satilik,11_15_arasi,1,Kombi,bilinmiyor,yok,var,var,var,yok,yok,yok,yok,yok,yok,yok,yok,yok,yok,yok,yok,yok,yok,yok,yok,yok,yok,yok,yok,yok,yok,yok,yok,yok,yok,kademe_4,kotu,normal,bilinmiyor,150_200_m2,4_oda,orta_4_7_kat,1_banyo,yok,yok,yok,dusuk,yok,yok,yok,1_5_2_Milyon_TL_Arasi
Amasya,Suluova,Satilik,0,2,Yerden_Isitma,bilinmiyor,yok,var,yok,var,yok,yok,yok,yok,yok,yok,yok,yok,yok,yok,yok,yok,yok,yok,yok,yok,yok,yok,yok,yok,yok,yok,yok,yok,yok,yok,kademe_4,bilinmiyor,kotu,bilinmiyor,50_75_m2,2_oda,orta_4_7_kat,1_banyo,yok,yok,yok,dusuk,yok,yok,yok,1_5_2_Milyon_TL_Arasi
Kastamonu,Merkez,Satilik,0,2,Kombi,bilinmiyor,yok,var,var,var,yok,var,yok,var,yok,yok,var,yok,yok,var,yok,yok,yok,yok,yok,yok,yok,yok,var,yok,yok,var,yok,yok,yok,yok,kademe_4,iyi,iyi,bilinmiyor,50_75_m2,3_oda,orta_4_7_kat,1_banyo,dusuk,yok,dusuk,orta,yuksek,yuksek,yok,2_3_Milyon_TL_Arasi
Aksaray,Merkez,Satilik,0,Yuksek_Giris,Kombi,bilinmiyor,yok,var,var,var,yok,var,yok,var,yok,yok,var,var,yok,var,yok,yok,yok,yok,yok,yok,yok,yok,yok,yok,yok,var,yok,yok,yok,yok,kademe_4,kotu,bilinmiyor,kotu,100_125_m2,3_oda,orta_4_7_kat,2_banyo,orta,dusuk,dusuk,dusuk,orta,yuksek,yok,4_5_Milyon_TL_Arasi
Kastamonu,Merkez,Satilik,26_30_arasi,2,Kombi,bilinmiyor,yok,var,var,var,yok,yok,var,var,yok,yok,var,yok,yok,yok,yok,yok,yok,yok,yok,yok,yok,yok,yok,yok,yok,var,yok,yok,yok,yok,kademe_4,iyi,kotu,bilinmiyor,125_150_m2,4_oda,orta_4_7_kat,1_banyo,yok,yok,dusuk,dusuk,orta,yuksek,yok,4_5_Milyon_TL_Arasi
Amasya,Merzifon,Satilik,31_ve_uzeri,bilinmiyor,Kat_Kaloriferi,bilinmiyor,yok,var,yok,var,yok,yok,yok,var,yok,yok,var,yok,yok,yok,yok,yok,yok,yok,yok,yok,yok,yok,var,yok,yok,yok,var,yok,yok,yok,kademe_4,normal,bilinmiyor,kotu,300_m2_ve_ustu,4_oda,orta_4_7_kat,1_banyo,dusuk,yok,yok,orta,yok,yuksek,yok,4_5_Milyon_TL_Arasi
Aksaray,Merkez,Satilik,0,3,Yerden_Isitma,bilinmiyor,yok,var,var,yok,yok,var,var,var,var,yok,var,yok,yok,yok,yok,yok,yok,yok,yok,yok,yok,yok,yok,yok,yok,yok,yok,yok,yok,yok,kademe_4,kotu,bilinmiyor,bilinmiyor,100_125_m2,3_oda,orta_4_7_kat,1_banyo,yok,yok,yok,orta,orta,orta,yok,4_5_Milyon_TL_Arasi
Afyonkarahisar,Merkez,Satilik,16_20_arasi,7,Jeotermal,bilinmiyor,yok,var,var,yok,yok,yok,var,var,yok,yok,var,yok,yok,var,yok,yok,yok,yok,yok,yok,yok,var,yok,yok,yok,var,yok,yok,yok,yok,kademe_4,bilinmiyor,bilinmiyor,bilinmiyor,75_100_m2,3_oda,yuksek_8_15_kat,1_banyo,dusuk,yok,yok,orta,orta,yuksek,yok,3_4_Milyon_TL_Arasi
Amasya,Merzifon,Satilik,0,2,Kombi_Dogalgaz,bilinmiyor,yok,yok,var,yok,yok,var,yok,yok,var,yok,yok,yok,yok,yok,yok,yok,yok,yok,yok,yok,yok,yok,yok,yok,yok,yok,yok,yok,yok,yok,kademe_4,normal,bilinmiyor,bilinmiyor,100_125_m2,3_oda,orta_4_7_kat,1_banyo,yok,yok,yok,dusuk,yok,yok,yok,3_4_Milyon_TL_Arasi
Amasya,Merzifon,Satilik,1_5_arasi,3,Kombi,bilinmiyor,yok,var,var,var,yok,yok,yok,yok,var,yok,yok,yok,yok,yok,yok,yok,yok,yok,yok,yok,yok,yok,yok,yok,yok,yok,yok,yok,yok,yok,kademe_4,iyi,kotu,bilinmiyor,50_75_m2,2_oda,orta_4_7_kat,1_banyo,yok,yok,yok,dusuk,yok,yok,yok,1_5_Milyon_TL_Alti
Afyonkarahisar,Merkez,Satilik,1_5_arasi,4,Kombi,bilinmiyor,yok,var,yok,var,var,yok,yok,var,yok,yok,var,yok,yok,var,yok,yok,yok,yok,yok,yok,yok,yok,yok,yok,yok,var,yok,yok,yok,yok,kademe_4,iyi,normal,iyi,50_75_m2,2_oda,orta_4_7_kat,1_banyo,dusuk,dusuk,dusuk,orta,yuksek,yuksek,yok,3_4_Milyon_TL_Arasi
Sivas,Merkez,Satilik,16_20_arasi,En_Ust_Kat,Kombi_Dogalgaz,bilinmiyor,yok,var,yok,yok,yok,var,var,var,yok,yok,var,yok,yok,yok,yok,yok,yok,yok,yok,yok,yok,yok,var,yok,yok,var,yok,yok,yok,yok,kademe_4,normal,iyi,kotu,100_125_m2,3_oda,orta_4_7_kat,1_banyo,yok,yok,yok,orta,orta,yuksek,yok,2_3_Milyon_TL_Arasi
Amasya,Merkez,Satilik,21_25_arasi,4,Kombi_Dogalgaz,bilinmiyor,yok,yok,yok,yok,yok,yok,yok,var,yok,yok,yok,yok,yok,yok,yok,yok,yok,yok,yok,yok,yok,yok,var,yok,yok,var,yok,yok,yok,yok,kademe_4,kotu,bilinmiyor,kotu,100_125_m2,3_oda,orta_4_7_kat,1_banyo,yok,yok,yok,dusuk,yok,yok,yok,2_3_Milyon_TL_Arasi
Elazig,Merkez,Satilik,11_15_arasi,Yuksek_Giris,Merkezi,bilinmiyor,yok,var,var,yok,yok,yok,var,var,yok,yok,yok,yok,yok,yok,yok,yok,yok,yok,yok,yok,yok,yok,yok,yok,yok,yok,yok,yok,yok,yok,kademe_4,iyi,normal,kotu,150_200_m2,4_oda,orta_4_7_kat,1_banyo,dusuk,yok,yok,dusuk,orta,yuksek,yok,2_3_Milyon_TL_Arasi
Kastamonu,Merkez,Satilik,0,2,Merkezi,bilinmiyor,yok,var,var,var,yok,yok,yok,var,yok,yok,var,var,yok,yok,yok,yok,yok,yok,yok,yok,yok,yok,var,yok,yok,var,yok,yok,yok,yok,kademe_4,iyi,iyi,normal,100_125_m2,3_oda,yuksek_8_15_kat,2_banyo,dusuk,yok,yok,dusuk,yuksek,orta,yok,4_5_Milyon_TL_Arasi
Elazig,Merkez,Satilik,6_10_arasi,1,bilinmiyor,bilinmiyor,yok,yok,var,var,yok,yok,yok,yok,yok,yok,yok,yok,yok,yok,yok,yok,yok,yok,yok,yok,yok,yok,yok,yok,yok,yok,yok,yok,yok,yok,kademe_4,normal,bilinmiyor,bilinmiyor,100_125_m2,4_oda,alcak_1_3_kat,1_banyo,yok,yok,yok,dusuk,yok,yok,yok,3_4_Milyon_TL_Arasi
Kastamonu,Merkez,Satilik,31_ve_uzeri,bilinmiyor,Soba,bilinmiyor,yok,yok,yok,var,yok,yok,yok,yok,yok,yok,yok,yok,yok,yok,yok,yok,yok,yok,yok,yok,yok,yok,yok,yok,yok,yok,yok,yok,yok,yok,kademe_4,bilinmiyor,bilinmiyor,bilinmiyor,200_300_m2,7_oda_ve_ustu,orta_4_7_kat,3_banyo_ve_ustu,yok,yok,yok,dusuk,dusuk,dusuk,yok,4_5_Milyon_TL_Arasi
Artvin,Arhavi,Satilik,6_10_arasi,1,bilinmiyor,bilinmiyor,yok,var,var,yok,yok,yok,yok,yok,yok,yok,yok,yok,yok,yok,yok,yok,yok,yok,yok,yok,yok,yok,yok,yok,yok,yok,yok,yok,yok,yok,kademe_4,bilinmiyor,bilinmiyor,bilinmiyor,100_125_m2,3_oda,alcak_1_3_kat,1_banyo,yok,yok,yok,dusuk,dusuk,yok,yok,3_4_Milyon_TL_Arasi
Afyonkarahisar,Merkez,Satilik,0,1,Kombi,bilinmiyor,yok,var,var,var,yok,var,var,var,var,yok,var,var,yok,var,yok,yok,yok,yok,yok,yok,yok,yok,var,yok,yok,var,yok,yok,yok,yok,kademe_4,iyi,bilinmiyor,bilinmiyor,100_125_m2,4_oda,orta_4_7_kat,2_banyo,yok,dusuk,yok,orta,orta,yuksek,yok,4_5_Milyon_TL_Arasi
Aksaray,Merkez,Satilik,0,3,Yerden_Isitma,bilinmiyor,yok,var,var,var,yok,var,yok,var,yok,yok,var,var,yok,yok,yok,yok,yok,yok,yok,yok,yok,yok,yok,yok,yok,yok,yok,yok,yok,yok,kademe_4,iyi,bilinmiyor,iyi,150_200_m2,4_oda,orta_4_7_kat,2_banyo,yok,dusuk,yok,dusuk,yok,orta,yok,4_5_Milyon_TL_Arasi
Afyonkarahisar,Merkez,Satilik,0,2,Kombi,bilinmiyor,yok,var,var,var,yok,var,var,var,yok,yok,var,yok,yok,var,yok,yok,yok,yok,yok,yok,yok,yok,yok,yok,yok,var,yok,yok,yok,yok,kademe_4,iyi,normal,bilinmiyor,125_150_m2,4_oda,orta_4_7_kat,1_banyo,dusuk,dusuk,yok,orta,yuksek,yuksek,yok,7_Bucuk_10_Milyon_TL_Arasi
Kirsehir,Merkez,Satilik,1_5_arasi,4,Kombi,bilinmiyor,yok,var,yok,yok,yok,yok,var,yok,var,yok,yok,yok,yok,yok,yok,yok,yok,yok,yok,yok,yok,yok,yok,yok,yok,yok,yok,yok,yok,yok,kademe_4,normal,normal,bilinmiyor,125_150_m2,4_oda,orta_4_7_kat,1_banyo,yok,yok,yok,dusuk,yok,yok,yok,4_5_Milyon_TL_Arasi
Artvin,Merkez,Satilik,11_15_arasi,Yuksek_Giris,Kombi,bilinmiyor,yok,yok,yok,var,yok,yok,yok,yok,yok,yok,yok,yok,yok,yok,yok,yok,yok,yok,yok,yok,yok,yok,yok,yok,yok,yok,yok,yok,yok,yok,kademe_4,iyi,normal,kotu,50_75_m2,2_oda,orta_4_7_kat,1_banyo,yok,yok,yok,dusuk,yok,yok,yok,2_3_Milyon_TL_Arasi
Amasya,Suluova,Satilik,0,1,Yerden_Isitma,bilinmiyor,yok,var,yok,var,yok,var,var,var,var,yok,yok,yok,yok,yok,yok,yok,yok,yok,yok,yok,yok,yok,yok,yok,yok,yok,yok,yok,yok,yok,kademe_4,kotu,bilinmiyor,kotu,100_125_m2,3_oda,orta_4_7_kat,1_banyo,yok,yok,yok,dusuk,yok,yok,yok,2_3_Milyon_TL_Arasi
Artvin,Hopa,Satilik,6_10_arasi,1,bilinmiyor,bilinmiyor,yok,var,yok,yok,yok,yok,yok,yok,yok,yok,yok,yok,yok,yok,yok,yok,yok,yok,yok,yok,yok,yok,yok,yok,yok,yok,yok,yok,yok,yok,kademe_4,bilinmiyor,kotu,bilinmiyor,100_125_m2,4_oda,alcak_1_3_kat,1_banyo,yok,yok,yok,dusuk,yok,yok,yok,5_7_Bucuk_Milyon_TL_Arasi
Afyonkarahisar,Merkez,Satilik,0,1,Yerden_Isitma,bilinmiyor,yok,yok,yok,var,yok,yok,yok,var,yok,yok,yok,yok,yok,yok,yok,yok,yok,yok,yok,yok,yok,yok,yok,yok,yok,yok,yok,yok,yok,yok,kademe_4,iyi,iyi,bilinmiyor,125_150_m2,4_oda,orta_4_7_kat,2_banyo,yok,yok,yok,dusuk,yok,yok,yok,4_5_Milyon_TL_Arasi
Amasya,Merkez,Satilik,21_25_arasi,1,Kombi_Dogalgaz,bilinmiyor,yok,yok,var,yok,yok,yok,var,var,yok,yok,yok,yok,yok,yok,yok,yok,yok,yok,yok,yok,yok,yok,yok,yok,yok,yok,yok,yok,yok,yok,kademe_4,normal,normal,kotu,150_200_m2,4_oda,orta_4_7_kat,1_banyo,yok,yok,yok,dusuk,yok,dusuk,yok,3_4_Milyon_TL_Arasi
Kastamonu,Merkez,Satilik,6_10_arasi,6,Merkezi,bilinmiyor,yok,var,var,var,yok,var,yok,yok,yok,yok,var,var,yok,var,yok,yok,yok,yok,var,yok,yok,yok,var,yok,yok,var,var,yok,yok,yok,kademe_4,iyi,normal,bilinmiyor,200_300_m2,7_oda_ve_ustu,orta_4_7_kat,2_banyo,dusuk,orta,dusuk,orta,yuksek,yuksek,yok,7_Bucuk_10_Milyon_TL_Arasi
Amasya,Merkez,Satilik,6_10_arasi,Giris,Kombi,bilinmiyor,yok,var,yok,var,yok,var,var,yok,var,yok,var,var,yok,var,yok,yok,yok,yok,yok,yok,yok,yok,yok,yok,yok,var,yok,yok,yok,yok,kademe_4,bilinmiyor,iyi,bilinmiyor,125_150_m2,4_oda,orta_4_7_kat,2_banyo,yok,yok,yok,dusuk,orta,yuksek,yok,4_5_Milyon_TL_Arasi
Sivas,Merkez,Satilik,16_20_arasi,5,Kombi,bilinmiyor,yok,var,var,var,yok,var,var,var,yok,yok,var,var,yok,var,yok,yok,yok,yok,yok,yok,yok,yok,var,yok,yok,var,yok,yok,yok,yok,kademe_4,iyi,normal,bilinmiyor,150_200_m2,4_oda,orta_4_7_kat,2_banyo,dusuk,dusuk,dusuk,dusuk,yuksek,yuksek,yok,4_5_Milyon_TL_Arasi
Aksaray,Merkez,Satilik,1_5_arasi,2,Kombi,bilinmiyor,yok,var,var,yok,var,var,var,var,var,yok,yok,yok,yok,yok,yok,yok,yok,yok,yok,yok,yok,yok,yok,yok,yok,var,yok,yok,yok,yok,kademe_4,normal,normal,normal,0_50_m2,2_oda,orta_4_7_kat,1_banyo,dusuk,yok,yok,dusuk,dusuk,dusuk,yok,2_3_Milyon_TL_Arasi
Afyonkarahisar,Merkez,Satilik,11_15_arasi,2,Kombi,bilinmiyor,yok,var,var,var,yok,var,var,var,yok,yok,yok,yok,yok,yok,yok,yok,yok,yok,yok,yok,yok,yok,yok,yok,yok,yok,yok,yok,yok,yok,kademe_4,normal,normal,normal,150_200_m2,4_oda,orta_4_7_kat,1_banyo,yok,yok,yok,dusuk,yok,yok,yok,4_5_Milyon_TL_Arasi
Afyonkarahisar,Ihsaniye,Satilik,21_25_arasi,Ara_Kat,Jeotermal,bilinmiyor,yok,yok,yok,yok,var,yok,yok,var,yok,yok,yok,yok,yok,yok,yok,yok,yok,yok,yok,yok,yok,yok,yok,yok,yok,yok,yok,yok,yok,yok,kademe_4,normal,kotu,kotu,75_100_m2,3_oda,orta_4_7_kat,1_banyo,yok,yok,yok,dusuk,yok,yok,yok,1_5_Milyon_TL_Alti
Elazig,Merkez,Satilik,16_20_arasi,bilinmiyor,Kombi_Dogalgaz,bilinmiyor,yok,yok,yok,yok,yok,yok,yok,yok,yok,yok,yok,yok,yok,yok,yok,yok,yok,yok,yok,yok,yok,yok,yok,yok,yok,yok,yok,yok,yok,var,kademe_4,bilinmiyor,bilinmiyor,bilinmiyor,300_m2_ve_ustu,7_oda_ve_ustu,orta_4_7_kat,3_banyo_ve_ustu,yok,yok,yok,dusuk,yok,yok,yok,10_Milyon_TL_Ustu
Amasya,Merkez,Satilik,16_20_arasi,Kot_2,Kombi_Dogalgaz,bilinmiyor,yok,var,yok,yok,yok,yok,yok,yok,var,yok,yok,yok,yok,yok,yok,yok,yok,yok,yok,yok,yok,yok,yok,yok,yok,yok,yok,yok,yok,yok,kademe_4,kotu,bilinmiyor,kotu,125_150_m2,3_oda,orta_4_7_kat,1_banyo,yok,yok,yok,dusuk,yok,yok,yok,1_5_2_Milyon_TL_Arasi
Amasya,Merkez,Satilik,1_5_arasi,4,Kombi,bilinmiyor,yok,var,yok,var,yok,yok,var,var,yok,yok,var,yok,yok,var,yok,yok,yok,yok,yok,yok,yok,yok,yok,yok,yok,yok,yok,yok,yok,yok,kademe_4,iyi,normal,normal,0_50_m2,2_oda,orta_4_7_kat,1_banyo,yok,yok,yok,dusuk,yok,yuksek,yok,2_3_Milyon_TL_Arasi
Aksaray,Merkez,Satilik,0,Yuksek_Giris,Yerden_Isitma,bilinmiyor,yok,var,var,var,yok,yok,yok,yok,yok,yok,yok,yok,yok,yok,yok,yok,yok,yok,yok,yok,yok,yok,yok,yok,yok,yok,yok,yok,yok,yok,kademe_4,kotu,bilinmiyor,bilinmiyor,75_100_m2,3_oda,orta_4_7_kat,1_banyo,yok,yok,yok,dusuk,yok,yok,yok,3_4_Milyon_TL_Arasi
Amasya,Merkez,Satilik,1_5_arasi,5,Kombi,bilinmiyor,yok,var,yok,var,var,yok,var,var,var,yok,var,var,yok,var,yok,yok,yok,yok,yok,yok,yok,yok,yok,yok,yok,var,var,yok,yok,yok,kademe_4,normal,bilinmiyor,kotu,150_200_m2,5_oda,orta_4_7_kat,2_banyo,yok,orta,dusuk,dusuk,yuksek,yuksek,yok,4_5_Milyon_TL_Arasi
Afyonkarahisar,Merkez,Satilik,0,1,Yerden_Isitma,bilinmiyor,yok,var,var,var,yok,var,var,var,yok,yok,var,yok,yok,var,yok,yok,yok,yok,yok,yok,yok,yok,yok,yok,yok,var,yok,yok,yok,yok,kademe_4,bilinmiyor,bilinmiyor,bilinmiyor,75_100_m2,3_oda,orta_4_7_kat,1_banyo,yok,dusuk,dusuk,dusuk,orta,yuksek,yok,4_5_Milyon_TL_Arasi
Aksaray,Merkez,Satilik,0,3,Kombi,bilinmiyor,yok,var,yok,yok,yok,var,yok,yok,yok,yok,var,var,yok,var,var,yok,yok,yok,yok,yok,yok,yok,var,yok,yok,var,yok,yok,yok,yok,kademe_4,iyi,normal,iyi,150_200_m2,4_oda,orta_4_7_kat,2_banyo,dusuk,orta,dusuk,orta,yuksek,yuksek,yok,7_Bucuk_10_Milyon_TL_Arasi
Kastamonu,Merkez,Satilik,1_5_arasi,Kot_3,Dogalgaz_Sobasi,bilinmiyor,yok,yok,yok,yok,var,yok,yok,yok,yok,yok,yok,yok,yok,yok,yok,yok,yok,yok,yok,yok,yok,yok,yok,yok,yok,yok,yok,yok,yok,yok,kademe_4,bilinmiyor,kotu,bilinmiyor,50_75_m2,2_oda,orta_4_7_kat,1_banyo,yok,yok,yok,dusuk,yok,yok,yok,1_5_Milyon_TL_Alti
Amasya,Merzifon,Satilik,16_20_arasi,5,Kombi,bilinmiyor,yok,var,yok,yok,yok,yok,var,var,yok,yok,var,var,yok,yok,yok,yok,yok,yok,yok,yok,yok,yok,yok,yok,yok,var,yok,yok,yok,yok,kademe_4,normal,bilinmiyor,bilinmiyor,150_200_m2,4_oda,orta_4_7_kat,2_banyo,yok,yok,yok,dusuk,orta,yuksek,yok,4_5_Milyon_TL_Arasi
Aksaray,Merkez,Satilik,16_20_arasi,En_Ust_Kat,Kombi_Dogalgaz,bilinmiyor,yok,var,yok,var,yok,var,yok,var,yok,yok,yok,yok,yok,yok,yok,yok,yok,yok,yok,yok,yok,yok,yok,yok,yok,yok,yok,yok,yok,yok,kademe_4,normal,kotu,kotu,150_200_m2,4_oda,orta_4_7_kat,2_banyo,yok,yok,yok,yok,yok,yok,yok,3_4_Milyon_TL_Arasi
Sivas,Merkez,Satilik,6_10_arasi,Ara_Kat,Kombi_Dogalgaz,bilinmiyor,yok,yok,var,var,yok,yok,yok,yok,yok,yok,yok,yok,yok,yok,yok,yok,yok,yok,yok,yok,yok,yok,yok,yok,yok,yok,yok,yok,yok,yok,kademe_4,iyi,iyi,bilinmiyor,150_200_m2,5_oda,orta_4_7_kat,2_banyo,yok,yok,yok,dusuk,yok,yok,yok,5_7_Bucuk_Milyon_TL_Arasi
Amasya,Merkez,Satilik,6_10_arasi,8,Yerden_Isitma,bilinmiyor,yok,var,yok,var,yok,yok,yok,yok,yok,yok,yok,yok,yok,yok,yok,yok,yok,yok,yok,yok,yok,yok,yok,yok,yok,yok,yok,yok,yok,yok,kademe_4,normal,bilinmiyor,bilinmiyor,200_300_m2,5_oda,yuksek_8_15_kat,3_banyo_ve_ustu,yok,yok,yok,dusuk,yok,yok,yok,7_Bucuk_10_Milyon_TL_Arasi
Afyonkarahisar,Merkez,Satilik,31_ve_uzeri,Ara_Kat,Kombi_Dogalgaz,bilinmiyor,yok,var,yok,yok,yok,yok,var,var,yok,yok,yok,yok,yok,yok,yok,yok,yok,yok,yok,yok,yok,yok,yok,yok,yok,var,yok,yok,yok,yok,kademe_4,normal,bilinmiyor,bilinmiyor,75_100_m2,3_oda,orta_4_7_kat,bilinmiyor,yok,yok,yok,dusuk,yok,dusuk,yok,1_5_2_Milyon_TL_Arasi
Kirsehir,Merkez,Satilik,1_5_arasi,Zemin,Kombi,bilinmiyor,yok,var,var,var,yok,yok,yok,yok,yok,yok,yok,yok,yok,yok,yok,yok,yok,yok,yok,yok,yok,yok,yok,yok,yok,yok,yok,yok,yok,yok,kademe_4,normal,normal,bilinmiyor,125_150_m2,4_oda,orta_4_7_kat,1_banyo,yok,yok,yok,dusuk,yok,yok,yok,2_3_Milyon_TL_Arasi
Aksaray,Sultanhani,Satilik,0,2,Yerden_Isitma,bilinmiyor,yok,var,var,var,yok,yok,var,var,yok,yok,yok,yok,yok,yok,yok,yok,yok,yok,yok,yok,yok,yok,yok,yok,yok,yok,yok,yok,yok,yok,kademe_4,normal,bilinmiyor,iyi,100_125_m2,3_oda,orta_4_7_kat,1_banyo,yok,yok,yok,dusuk,yok,yok,yok,2_3_Milyon_TL_Arasi
Amasya,Merzifon,Satilik,1_5_arasi,2,Yerden_Isitma,bilinmiyor,yok,var,yok,var,var,yok,yok,yok,var,yok,var,yok,yok,var,yok,yok,yok,yok,yok,yok,yok,yok,var,yok,yok,var,yok,yok,yok,yok,kademe_4,normal,normal,bilinmiyor,75_100_m2,2_oda,orta_4_7_kat,1_banyo,dusuk,yok,dusuk,orta,orta,yuksek,yok,2_3_Milyon_TL_Arasi
Kirsehir,Kaman,Satilik,1_5_arasi,6,Kombi,bilinmiyor,yok,var,var,var,yok,var,var,var,var,yok,yok,yok,yok,yok,yok,yok,yok,yok,yok,yok,yok,yok,yok,yok,yok,yok,yok,yok,yok,yok,kademe_4,normal,normal,bilinmiyor,150_200_m2,5_oda,yuksek_8_15_kat,2_banyo,yok,yok,yok,dusuk,yok,yok,yok,4_5_Milyon_TL_Arasi
Kastamonu,Merkez,Satilik,0,En_Ust_Kat,Kombi_Dogalgaz,bilinmiyor,yok,var,var,var,yok,yok,yok,yok,yok,yok,var,yok,yok,yok,yok,yok,yok,var,yok,yok,yok,yok,var,yok,yok,yok,yok,yok,yok,yok,kademe_4,bilinmiyor,bilinmiyor,bilinmiyor,75_100_m2,3_oda,orta_4_7_kat,1_banyo,orta,yok,yok,dusuk,dusuk,yuksek,yok,4_5_Milyon_TL_Arasi
Kastamonu,Merkez,Satilik,1_5_arasi,1,Merkezi,bilinmiyor,yok,var,var,var,yok,var,var,yok,var,yok,var,var,yok,var,yok,yok,yok,yok,yok,yok,yok,yok,yok,yok,yok,var,yok,yok,yok,yok,kademe_4,normal,iyi,bilinmiyor,200_300_m2,5_oda,orta_4_7_kat,3_banyo_ve_ustu,dusuk,dusuk,dusuk,orta,yuksek,yuksek,yok,5_7_Bucuk_Milyon_TL_Arasi
Elazig,Merkez,Satilik,0,Bahce,Kombi,bilinmiyor,yok,var,yok,var,yok,yok,yok,yok,yok,yok,yok,yok,yok,yok,yok,yok,yok,yok,yok,yok,yok,yok,yok,yok,yok,var,yok,yok,yok,yok,kademe_4,iyi,normal,bilinmiyor,200_300_m2,5_oda,orta_4_7_kat,3_banyo_ve_ustu,yok,yok,yok,yok,yok,dusuk,yok,7_Bucuk_10_Milyon_TL_Arasi
Amasya,Merkez,Satilik,0,1,Yerden_Isitma,bilinmiyor,yok,var,yok,var,yok,yok,yok,var,yok,yok,yok,yok,yok,yok,yok,yok,yok,yok,yok,yok,yok,yok,yok,yok,yok,yok,yok,yok,yok,yok,kademe_4,bilinmiyor,bilinmiyor,bilinmiyor,50_75_m2,2_oda,orta_4_7_kat,1_banyo,yok,yok,yok,dusuk,yok,yok,yok,1_5_2_Milyon_TL_Arasi
Elazig,Merkez,Satilik,6_10_arasi,Giris,Kombi,bilinmiyor,yok,var,yok,var,yok,var,yok,yok,var,yok,var,var,yok,yok,yok,yok,yok,yok,yok,yok,yok,yok,var,yok,yok,var,yok,yok,yok,yok,kademe_4,iyi,normal,kotu,75_100_m2,3_oda,orta_4_7_kat,2_banyo,yok,dusuk,yok,orta,orta,yuksek,yok,2_3_Milyon_TL_Arasi
Elazig,Maden,Satilik,11_15_arasi,Bahce,Gunes_Enerjisi,bilinmiyor,yok,var,yok,var,var,var,var,var,var,yok,var,yok,yok,yok,yok,yok,yok,yok,yok,yok,yok,yok,var,var,yok,yok,yok,var,yok,yok,kademe_4,kotu,bilinmiyor,bilinmiyor,125_150_m2,4_oda,alcak_1_3_kat,1_banyo,yok,yok,yok,dusuk,yok,yuksek,yok,3_4_Milyon_TL_Arasi
Amasya,Merzifon,Satilik,16_20_arasi,4,Kombi,bilinmiyor,yok,var,yok,yok,yok,yok,yok,var,var,yok,var,yok,yok,var,yok,yok,yok,yok,yok,yok,yok,yok,yok,yok,yok,var,yok,yok,yok,yok,kademe_4,normal,kotu,bilinmiyor,125_150_m2,4_oda,orta_4_7_kat,1_banyo,yok,yok,yok,dusuk,dusuk,yuksek,yok,2_3_Milyon_TL_Arasi
Elazig,Merkez,Satilik,6_10_arasi,3,Kombi,bilinmiyor,yok,var,yok,var,yok,yok,yok,var,var,yok,yok,yok,yok,yok,yok,yok,yok,yok,yok,yok,yok,yok,yok,yok,yok,var,yok,yok,yok,yok,kademe_4,normal,normal,normal,125_150_m2,4_oda,orta_4_7_kat,1_banyo,yok,yok,dusuk,dusuk,yuksek,yuksek,yok,3_4_Milyon_TL_Arasi
Afyonkarahisar,Merkez,Satilik,31_ve_uzeri,3,Kombi_Dogalgaz,bilinmiyor,yok,var,var,var,yok,var,var,yok,var,yok,yok,yok,yok,var,yok,yok,yok,yok,yok,yok,yok,yok,yok,yok,yok,var,yok,yok,yok,yok,kademe_4,normal,kotu,bilinmiyor,100_125_m2,4_oda,orta_4_7_kat,1_banyo,yok,yok,yok,orta,dusuk,orta,yok,2_3_Milyon_TL_Arasi
Aksaray,Merkez,Satilik,0,Yuksek_Giris,Kombi,bilinmiyor,yok,var,yok,yok,yok,yok,var,var,yok,yok,var,var,yok,var,var,yok,yok,yok,yok,yok,yok,yok,var,yok,yok,var,yok,yok,yok,yok,kademe_4,bilinmiyor,bilinmiyor,bilinmiyor,125_150_m2,4_oda,orta_4_7_kat,2_banyo,dusuk,dusuk,orta,orta,yuksek,yuksek,yok,5_7_Bucuk_Milyon_TL_Arasi
Kastamonu,Bozkurt,Satilik,26_30_arasi,4,Kombi,bilinmiyor,yok,var,yok,yok,yok,var,yok,yok,var,yok,yok,yok,yok,yok,yok,yok,yok,yok,yok,yok,yok,yok,yok,yok,yok,var,yok,yok,yok,yok,kademe_4,kotu,normal,kotu,125_150_m2,4_oda,orta_4_7_kat,1_banyo,yok,yok,yok,dusuk,yok,yok,yok,1_5_2_Milyon_TL_Arasi
Kastamonu,Merkez,Satilik,31_ve_uzeri,Bahce,Kombi,bilinmiyor,yok,var,yok,var,yok,var,var,var,var,yok,var,yok,yok,yok,yok,yok,yok,yok,yok,yok,yok,yok,var,yok,yok,var,yok,var,yok,yok,kademe_4,kotu,bilinmiyor,bilinmiyor,300_m2_ve_ustu,6_oda,bilinmiyor,1_banyo,yok,yok,dusuk,orta,orta,dusuk,yok,4_5_Milyon_TL_Arasi
Aksaray,Merkez,Satilik,0,2,Kombi,bilinmiyor,yok,var,yok,var,yok,yok,yok,var,yok,yok,var,yok,yok,yok,yok,yok,yok,yok,yok,yok,yok,yok,var,yok,yok,var,yok,yok,yok,yok,kademe_4,normal,bilinmiyor,kotu,125_150_m2,4_oda,orta_4_7_kat,1_banyo,yok,yok,dusuk,dusuk,yuksek,orta,yok,5_7_Bucuk_Milyon_TL_Arasi
Amasya,Merkez,Satilik,31_ve_uzeri,bilinmiyor,Kombi_Dogalgaz,bilinmiyor,yok,yok,yok,yok,yok,yok,yok,yok,yok,yok,yok,yok,yok,yok,yok,yok,yok,yok,yok,yok,yok,yok,yok,yok,yok,var,yok,yok,yok,yok,kademe_4,bilinmiyor,bilinmiyor,bilinmiyor,150_200_m2,6_oda,alcak_1_3_kat,2_banyo,yok,yok,yok,dusuk,yok,dusuk,yok,2_3_Milyon_TL_Arasi
Sivas,Merkez,Satilik,31_ve_uzeri,3,Kombi,bilinmiyor,yok,var,yok,var,var,var,yok,yok,var,yok,var,yok,yok,yok,yok,yok,yok,yok,yok,yok,yok,yok,yok,yok,yok,yok,yok,yok,yok,yok,kademe_4,kotu,kotu,bilinmiyor,100_125_m2,4_oda,orta_4_7_kat,1_banyo,yok,yok,yok,dusuk,orta,yuksek,yok,1_5_2_Milyon_TL_Arasi
Amasya,Merzifon,Satilik,0,3,Yerden_Isitma,bilinmiyor,yok,var,var,yok,yok,yok,yok,yok,yok,yok,yok,yok,yok,yok,yok,yok,yok,yok,yok,yok,yok,yok,yok,yok,yok,yok,yok,yok,yok,yok,kademe_4,bilinmiyor,bilinmiyor,bilinmiyor,125_150_m2,4_oda,orta_4_7_kat,2_banyo,yok,yok,yok,dusuk,yok,yok,yok,5_7_Bucuk_Milyon_TL_Arasi
Kastamonu,Merkez,Satilik,6_10_arasi,2,Merkezi,bilinmiyor,yok,yok,yok,var,var,yok,yok,yok,yok,yok,var,yok,yok,yok,yok,yok,yok,yok,yok,yok,yok,yok,yok,yok,yok,yok,yok,yok,yok,yok,kademe_4,kotu,kotu,kotu,0_50_m2,1_oda,orta_4_7_kat,1_banyo,yok,yok,yok,dusuk,orta,yuksek,yok,1_5_Milyon_TL_Alti
Amasya,Merzifon,Satilik,16_20_arasi,1,Kombi_Dogalgaz,bilinmiyor,yok,var,var,yok,yok,var,yok,yok,var,yok,var,yok,yok,yok,yok,yok,yok,yok,yok,yok,yok,yok,var,yok,yok,var,yok,yok,yok,yok,kademe_4,kotu,kotu,bilinmiyor,125_150_m2,4_oda,orta_4_7_kat,1_banyo,yok,yok,yok,dusuk,dusuk,orta,yok,2_3_Milyon_TL_Arasi
Aksaray,Merkez,Satilik,0,Ara_Kat,Kombi_Dogalgaz,bilinmiyor,yok,var,yok,yok,var,yok,yok,yok,yok,yok,yok,yok,yok,yok,yok,yok,yok,yok,yok,yok,yok,yok,yok,yok,yok,yok,yok,yok,yok,yok,kademe_4,iyi,iyi,bilinmiyor,50_75_m2,2_oda,orta_4_7_kat,1_banyo,yok,yok,yok,yok,yok,yok,yok,2_3_Milyon_TL_Arasi
Sivas,Merkez,Satilik,16_20_arasi,En_Ust_Kat,Kombi_Dogalgaz,bilinmiyor,yok,var,var,var,yok,var,var,var,yok,yok,var,yok,yok,yok,yok,yok,yok,yok,yok,yok,yok,yok,yok,yok,yok,var,yok,yok,yok,yok,kademe_4,iyi,normal,kotu,125_150_m2,4_oda,orta_4_7_kat,1_banyo,yok,dusuk,yok,dusuk,orta,yuksek,yok,3_4_Milyon_TL_Arasi
Amasya,Merzifon,Satilik,0,3,Kombi_Dogalgaz,bilinmiyor,yok,var,yok,var,yok,yok,yok,var,yok,yok,var,yok,yok,yok,yok,yok,yok,yok,yok,yok,yok,yok,yok,yok,yok,var,yok,yok,yok,yok,kademe_4,iyi,normal,iyi,75_100_m2,3_oda,orta_4_7_kat,1_banyo,yok,yok,yok,dusuk,yok,dusuk,yok,2_3_Milyon_TL_Arasi
Elazig,Merkez,Satilik,0,3,Kombi,bilinmiyor,yok,var,var,var,yok,yok,yok,yok,yok,yok,yok,yok,yok,yok,yok,yok,yok,yok,yok,yok,yok,yok,yok,yok,yok,yok,yok,yok,yok,yok,kademe_4,iyi,bilinmiyor,normal,50_75_m2,2_oda,orta_4_7_kat,1_banyo,yok,yok,yok,dusuk,yok,yok,yok,2_3_Milyon_TL_Arasi
Amasya,Merkez,Satilik,6_10_arasi,3,Kombi_Dogalgaz,bilinmiyor,yok,yok,yok,yok,yok,yok,yok,yok,yok,yok,yok,yok,yok,yok,yok,yok,yok,yok,yok,yok,yok,yok,yok,yok,yok,yok,yok,yok,yok,yok,kademe_4,iyi,normal,bilinmiyor,50_75_m2,2_oda,orta_4_7_kat,1_banyo,yok,yok,yok,dusuk,yok,yok,yok,1_5_Milyon_TL_Alti
Afyonkarahisar,Dinar,Satilik,26_30_arasi,3,Kombi,bilinmiyor,yok,var,yok,var,yok,var,var,var,var,yok,var,yok,yok,yok,yok,yok,yok,yok,yok,yok,yok,yok,yok,yok,yok,var,yok,yok,yok,yok,kademe_4,kotu,bilinmiyor,bilinmiyor,75_100_m2,3_oda,orta_4_7_kat,1_banyo,yok,yok,yok,dusuk,yuksek,orta,yok,2_3_Milyon_TL_Arasi
Afyonkarahisar,Merkez,Satilik,0,1,Kombi,bilinmiyor,yok,var,var,var,yok,yok,yok,yok,yok,yok,yok,yok,yok,yok,yok,yok,yok,yok,yok,yok,yok,yok,yok,yok,yok,yok,yok,yok,yok,yok,kademe_4,iyi,iyi,bilinmiyor,75_100_m2,3_oda,orta_4_7_kat,1_banyo,yok,yok,yok,dusuk,yok,yok,yok,3_4_Milyon_TL_Arasi
Sivas,Merkez,Satilik,16_20_arasi,1,bilinmiyor,bilinmiyor,yok,var,yok,var,yok,yok,yok,yok,yok,yok,yok,yok,yok,yok,yok,yok,yok,yok,yok,yok,yok,yok,yok,yok,yok,yok,yok,yok,yok,yok,kademe_4,normal,normal,bilinmiyor,100_125_m2,4_oda,alcak_1_3_kat,1_banyo,yok,yok,yok,yok,yok,yok,yok,3_4_Milyon_TL_Arasi
Amasya,Merkez,Satilik,26_30_arasi,Zemin,Kombi_Dogalgaz,bilinmiyor,yok,yok,yok,yok,yok,yok,yok,yok,var,yok,yok,yok,yok,yok,yok,yok,yok,yok,yok,yok,yok,yok,yok,yok,yok,yok,yok,yok,yok,yok,kademe_4,normal,normal,bilinmiyor,50_75_m2,2_oda,orta_4_7_kat,1_banyo,yok,yok,yok,dusuk,dusuk,dusuk,yok,1_5_2_Milyon_TL_Arasi
Amasya,Merkez,Satilik,0,3,Kombi_Dogalgaz,bilinmiyor,yok,var,yok,yok,yok,yok,yok,yok,yok,yok,yok,yok,yok,yok,yok,yok,yok,yok,yok,yok,yok,yok,yok,yok,yok,yok,yok,yok,yok,yok,kademe_4,normal,bilinmiyor,bilinmiyor,100_125_m2,3_oda,orta_4_7_kat,1_banyo,yok,yok,yok,dusuk,yok,yok,yok,4_5_Milyon_TL_Arasi
Kastamonu,Inebolu,Satilik,0,1,Kombi,bilinmiyor,yok,var,var,var,yok,yok,var,var,var,yok,var,yok,yok,var,yok,yok,yok,yok,yok,yok,yok,yok,var,yok,yok,var,yok,yok,yok,yok,kademe_4,iyi,iyi,bilinmiyor,75_100_m2,3_oda,orta_4_7_kat,1_banyo,dusuk,yok,yok,dusuk,orta,orta,yok,4_5_Milyon_TL_Arasi
Aksaray,Merkez,Satilik,0,Ara_Kat,Kombi_Dogalgaz,bilinmiyor,yok,var,var,yok,var,var,var,var,var,yok,var,yok,yok,yok,yok,yok,yok,yok,yok,yok,yok,yok,yok,yok,yok,yok,yok,yok,yok,yok,kademe_4,iyi,normal,bilinmiyor,0_50_m2,2_oda,orta_4_7_kat,1_banyo,dusuk,yok,yok,dusuk,orta,yuksek,yok,1_5_2_Milyon_TL_Arasi
Aksaray,Merkez,Satilik,0,1,Kombi,bilinmiyor,yok,var,yok,yok,yok,var,yok,yok,var,yok,var,var,yok,yok,yok,yok,yok,yok,yok,yok,yok,yok,var,yok,yok,var,yok,yok,yok,yok,kademe_4,iyi,bilinmiyor,bilinmiyor,125_150_m2,4_oda,orta_4_7_kat,2_banyo,yok,yok,dusuk,dusuk,yuksek,yuksek,yok,5_7_Bucuk_Milyon_TL_Arasi
Aksaray,Merkez,Satilik,0,2,Kombi_Dogalgaz,bilinmiyor,yok,var,yok,yok,yok,yok,yok,var,yok,yok,yok,yok,yok,yok,yok,yok,yok,yok,yok,yok,yok,yok,yok,yok,yok,yok,yok,yok,yok,yok,kademe_4,normal,normal,iyi,50_75_m2,3_oda,orta_4_7_kat,1_banyo,yok,yok,yok,yok,yok,yok,yok,2_3_Milyon_TL_Arasi
Amasya,Merzifon,Satilik,1_5_arasi,4,Kombi_Dogalgaz,bilinmiyor,yok,var,yok,var,yok,yok,var,var,yok,yok,var,var,yok,var,yok,yok,yok,yok,yok,yok,yok,yok,yok,yok,yok,var,yok,yok,yok,yok,kademe_4,iyi,iyi,normal,200_300_m2,5_oda,orta_4_7_kat,3_banyo_ve_ustu,dusuk,yok,yok,dusuk,dusuk,yuksek,yok,5_7_Bucuk_Milyon_TL_Arasi
Amasya,Merkez,Satilik,1_5_arasi,1,Kombi_Dogalgaz,bilinmiyor,yok,var,var,var,yok,var,yok,var,var,yok,var,yok,yok,yok,yok,yok,yok,yok,yok,yok,yok,yok,yok,yok,yok,yok,yok,yok,yok,yok,kademe_4,bilinmiyor,bilinmiyor,bilinmiyor,50_75_m2,2_oda,orta_4_7_kat,1_banyo,yok,yok,yok,dusuk,orta,orta,yok,1_5_2_Milyon_TL_Arasi
Amasya,Merzifon,Satilik,1_5_arasi,2,Kombi_Dogalgaz,bilinmiyor,yok,yok,yok,yok,yok,yok,yok,var,yok,yok,yok,yok,yok,yok,yok,yok,yok,yok,yok,yok,yok,yok,yok,yok,yok,yok,yok,yok,yok,yok,kademe_4,kotu,normal,normal,50_75_m2,2_oda,orta_4_7_kat,1_banyo,yok,yok,yok,dusuk,yok,yok,yok,1_5_2_Milyon_TL_Arasi
Amasya,Merkez,Satilik,16_20_arasi,Giris,Kombi_Dogalgaz,bilinmiyor,yok,yok,yok,yok,yok,yok,yok,yok,yok,yok,yok,yok,yok,yok,yok,yok,yok,yok,yok,yok,yok,yok,yok,yok,yok,yok,yok,yok,yok,yok,kademe_4,normal,bilinmiyor,kotu,75_100_m2,2_oda,orta_4_7_kat,1_banyo,yok,yok,yok,dusuk,yok,yok,yok,2_3_Milyon_TL_Arasi
Artvin,Merkez,Satilik,16_20_arasi,bilinmiyor,Kat_Kaloriferi,bilinmiyor,yok,yok,yok,yok,yok,yok,yok,yok,yok,yok,yok,yok,yok,yok,yok,yok,yok,yok,yok,yok,yok,yok,yok,yok,yok,yok,yok,yok,yok,yok,kademe_4,kotu,kotu,bilinmiyor,150_200_m2,5_oda,orta_4_7_kat,1_banyo,yok,yok,yok,dusuk,yok,yok,yok,2_3_Milyon_TL_Arasi
Amasya,Merkez,Satilik,6_10_arasi,Yuksek_Giris,Yerden_Isitma,bilinmiyor,yok,var,yok,var,yok,yok,yok,yok,yok,yok,var,yok,yok,yok,yok,yok,yok,yok,yok,yok,yok,yok,yok,yok,yok,yok,yok,yok,yok,yok,kademe_4,kotu,normal,kotu,50_75_m2,2_oda,orta_4_7_kat,1_banyo,dusuk,yok,dusuk,dusuk,orta,dusuk,yok,1_5_2_Milyon_TL_Arasi
Elazig,Merkez,Satilik,6_10_arasi,1,Kombi,bilinmiyor,yok,var,yok,var,yok,yok,yok,var,var,yok,var,var,yok,yok,yok,yok,yok,yok,yok,yok,yok,yok,yok,yok,yok,var,yok,yok,yok,yok,kademe_4,bilinmiyor,normal,kotu,150_200_m2,4_oda,orta_4_7_kat,2_banyo,yok,yok,dusuk,dusuk,yuksek,dusuk,yok,3_4_Milyon_TL_Arasi
Afyonkarahisar,Merkez,Satilik,26_30_arasi,bilinmiyor,Kombi_Dogalgaz,bilinmiyor,yok,yok,yok,yok,yok,yok,yok,var,var,yok,yok,yok,yok,yok,yok,yok,yok,yok,yok,yok,yok,yok,yok,yok,yok,yok,yok,yok,yok,yok,kademe_4,kotu,kotu,bilinmiyor,125_150_m2,5_oda,alcak_1_3_kat,1_banyo,yok,yok,yok,dusuk,yok,yok,yok,3_4_Milyon_TL_Arasi
Kastamonu,Merkez,Satilik,1_5_arasi,12,Merkezi,bilinmiyor,yok,var,var,var,yok,var,var,var,yok,yok,var,var,yok,var,yok,yok,yok,yok,yok,yok,yok,yok,var,yok,yok,var,yok,yok,yok,yok,kademe_4,bilinmiyor,normal,bilinmiyor,200_300_m2,4_oda,cok_yuksek_16_ustu_kat,2_banyo,dusuk,yok,dusuk,orta,yuksek,yuksek,yok,7_Bucuk_10_Milyon_TL_Arasi
Amasya,Merkez,Satilik,6_10_arasi,3,Kombi,bilinmiyor,yok,var,yok,var,var,yok,yok,yok,var,yok,var,yok,yok,yok,yok,yok,yok,yok,yok,yok,yok,yok,yok,yok,yok,var,yok,yok,yok,yok,kademe_4,normal,normal,bilinmiyor,50_75_m2,2_oda,orta_4_7_kat,1_banyo,yok,yok,dusuk,dusuk,dusuk,orta,yok,2_3_Milyon_TL_Arasi
Kastamonu,Cide,Satilik,11_15_arasi,5,Kombi,bilinmiyor,yok,var,yok,yok,yok,yok,yok,yok,var,yok,var,yok,yok,var,yok,yok,yok,yok,yok,yok,yok,yok,yok,yok,yok,var,yok,yok,yok,yok,kademe_4,iyi,normal,bilinmiyor,150_200_m2,6_oda,orta_4_7_kat,2_banyo,dusuk,dusuk,yok,dusuk,yok,yuksek,yok,4_5_Milyon_TL_Arasi
Afyonkarahisar,Merkez,Satilik,16_20_arasi,6,Kombi,bilinmiyor,yok,var,var,var,yok,yok,yok,yok,yok,yok,yok,yok,yok,yok,yok,yok,yok,yok,yok,yok,yok,yok,yok,yok,yok,var,yok,yok,yok,yok,kademe_4,normal,bilinmiyor,bilinmiyor,125_150_m2,4_oda,orta_4_7_kat,1_banyo,dusuk,yok,yok,orta,orta,yuksek,yok,4_5_Milyon_TL_Arasi
Amasya,Suluova,Satilik,1_5_arasi,Ara_Kat,Yerden_Isitma,bilinmiyor,yok,var,var,var,yok,yok,yok,yok,var,yok,yok,yok,yok,var,yok,yok,yok,yok,yok,yok,yok,yok,yok,yok,yok,var,yok,yok,yok,yok,kademe_4,normal,normal,kotu,75_100_m2,3_oda,orta_4_7_kat,1_banyo,dusuk,yok,yok,orta,dusuk,orta,yok,3_4_Milyon_TL_Arasi
Elazig,Merkez,Satilik,21_25_arasi,4,Kombi_Dogalgaz,bilinmiyor,yok,var,var,yok,yok,yok,var,var,var,yok,var,var,yok,var,yok,yok,yok,yok,yok,yok,yok,yok,yok,yok,yok,yok,yok,yok,yok,yok,kademe_4,normal,normal,bilinmiyor,200_300_m2,4_oda,orta_4_7_kat,2_banyo,dusuk,yok,yok,dusuk,yok,yuksek,yok,3_4_Milyon_TL_Arasi
Aksaray,Merkez,Satilik,0,4,Kombi,bilinmiyor,yok,var,var,yok,yok,yok,var,var,yok,yok,yok,yok,yok,yok,yok,yok,yok,yok,yok,yok,yok,yok,yok,yok,yok,yok,yok,yok,yok,yok,kademe_4,normal,kotu,bilinmiyor,100_125_m2,3_oda,yuksek_8_15_kat,1_banyo,yok,yok,yok,yok,yok,yok,yok,3_4_Milyon_TL_Arasi
Aksaray,Merkez,Satilik,11_15_arasi,4,Yerden_Isitma,bilinmiyor,yok,var,yok,yok,yok,var,var,var,yok,yok,yok,yok,yok,yok,yok,yok,yok,yok,yok,yok,yok,yok,yok,yok,yok,yok,yok,yok,yok,yok,kademe_4,kotu,kotu,kotu,125_150_m2,4_oda,orta_4_7_kat,1_banyo,yok,yok,yok,dusuk,orta,yok,yok,3_4_Milyon_TL_Arasi
Aksaray,Merkez,Satilik,1_5_arasi,Ara_Kat,Kombi_Dogalgaz,bilinmiyor,yok,var,yok,yok,var,yok,yok,yok,yok,yok,yok,yok,yok,yok,yok,yok,yok,yok,yok,yok,yok,yok,yok,yok,yok,yok,yok,yok,yok,yok,kademe_4,iyi,iyi,bilinmiyor,50_75_m2,2_oda,yuksek_8_15_kat,bilinmiyor,yok,yok,yok,dusuk,yok,yok,yok,2_3_Milyon_TL_Arasi
Kastamonu,Merkez,Satilik,0,3,Merkezi,bilinmiyor,yok,var,yok,yok,yok,yok,yok,var,yok,yok,var,yok,yok,var,yok,yok,yok,yok,yok,yok,yok,yok,var,yok,yok,var,yok,yok,yok,yok,kademe_4,normal,bilinmiyor,bilinmiyor,100_125_m2,4_oda,cok_yuksek_16_ustu_kat,1_banyo,dusuk,yok,yok,dusuk,orta,orta,yok,4_5_Milyon_TL_Arasi
Amasya,Merkez,Satilik,21_25_arasi,Zemin,Kombi_Dogalgaz,bilinmiyor,yok,yok,yok,yok,yok,yok,yok,yok,yok,yok,yok,yok,yok,yok,yok,yok,yok,yok,yok,yok,yok,yok,yok,yok,yok,yok,yok,yok,yok,yok,kademe_4,iyi,kotu,iyi,100_125_m2,3_oda,orta_4_7_kat,1_banyo,yok,yok,yok,dusuk,yok,yok,yok,1_5_2_Milyon_TL_Arasi
Amasya,Merkez,Satilik,16_20_arasi,3,Kombi,bilinmiyor,yok,var,yok,var,yok,yok,yok,yok,yok,yok,var,yok,yok,yok,yok,yok,yok,yok,yok,yok,yok,yok,yok,yok,yok,yok,yok,yok,yok,yok,kademe_4,normal,kotu,bilinmiyor,150_200_m2,4_oda,orta_4_7_kat,1_banyo,yok,yok,yok,dusuk,orta,orta,yok,3_4_Milyon_TL_Arasi
Kastamonu,Merkez,Satilik,1_5_arasi,bilinmiyor,Soba,bilinmiyor,yok,yok,yok,yok,yok,yok,var,var,yok,yok,yok,yok,yok,yok,yok,yok,yok,yok,yok,yok,yok,yok,yok,yok,yok,yok,yok,yok,yok,yok,kademe_4,kotu,bilinmiyor,bilinmiyor,300_m2_ve_ustu,7_oda_ve_ustu,orta_4_7_kat,3_banyo_ve_ustu,yok,yok,yok,dusuk,yok,yok,yok,4_5_Milyon_TL_Arasi
Afyonkarahisar,Merkez,Satilik,21_25_arasi,4,Kombi,bilinmiyor,yok,var,yok,yok,yok,yok,yok,var,yok,yok,yok,yok,yok,yok,yok,yok,yok,yok,yok,yok,yok,yok,yok,yok,yok,var,yok,yok,yok,yok,kademe_4,kotu,bilinmiyor,bilinmiyor,200_300_m2,7_oda_ve_ustu,orta_4_7_kat,2_banyo,yok,dusuk,yok,dusuk,orta,dusuk,yok,4_5_Milyon_TL_Arasi
Kastamonu,Taskopru,Satilik,6_10_arasi,2,Kombi,bilinmiyor,yok,var,var,var,yok,var,var,var,yok,yok,yok,yok,yok,yok,yok,yok,yok,yok,yok,yok,yok,yok,var,yok,yok,var,yok,yok,yok,yok,kademe_4,bilinmiyor,bilinmiyor,bilinmiyor,100_125_m2,3_oda,orta_4_7_kat,1_banyo,yok,yok,yok,orta,orta,yuksek,yok,3_4_Milyon_TL_Arasi
Amasya,Merkez,Satilik,21_25_arasi,Ara_Kat,Kombi_Dogalgaz,bilinmiyor,yok,var,yok,var,yok,var,yok,var,yok,yok,var,yok,yok,var,yok,yok,yok,yok,yok,yok,yok,yok,yok,yok,yok,yok,yok,yok,yok,yok,kademe_4,bilinmiyor,bilinmiyor,bilinmiyor,125_150_m2,4_oda,orta_4_7_kat,1_banyo,yok,yok,dusuk,dusuk,yok,yuksek,yok,2_3_Milyon_TL_Arasi
Kastamonu,Merkez,Satilik,0,2,Kombi,bilinmiyor,yok,var,yok,var,yok,var,yok,var,yok,yok,yok,yok,yok,yok,yok,yok,yok,yok,yok,yok,yok,yok,var,yok,yok,var,yok,yok,yok,yok,kademe_4,kotu,bilinmiyor,kotu,50_75_m2,2_oda,orta_4_7_kat,1_banyo,yok,yok,dusuk,orta,yuksek,yok,yok,2_3_Milyon_TL_Arasi
Amasya,Merzifon,Satilik,11_15_arasi,1,Kombi_Dogalgaz,bilinmiyor,yok,var,var,yok,yok,var,yok,var,var,yok,var,var,yok,yok,yok,yok,yok,yok,yok,yok,yok,yok,yok,yok,yok,var,yok,yok,yok,yok,kademe_4,iyi,iyi,normal,150_200_m2,4_oda,orta_4_7_kat,2_banyo,dusuk,yok,yok,dusuk,dusuk,orta,yok,4_5_Milyon_TL_Arasi
Elazig,Maden,Satilik,0,1,Soba,bilinmiyor,yok,var,yok,var,yok,yok,yok,yok,yok,yok,yok,yok,yok,yok,yok,yok,yok,yok,yok,yok,yok,yok,yok,yok,yok,yok,yok,yok,yok,yok,kademe_4,bilinmiyor,bilinmiyor,bilinmiyor,300_m2_ve_ustu,4_oda,alcak_1_3_kat,2_banyo,yok,yok,yok,dusuk,yok,yok,yok,5_7_Bucuk_Milyon_TL_Arasi
Kastamonu,Merkez,Satilik,1_5_arasi,3,Kombi_Dogalgaz,bilinmiyor,yok,var,var,var,var,yok,yok,var,yok,yok,var,yok,yok,yok,yok,yok,yok,yok,yok,yok,yok,yok,yok,yok,yok,yok,yok,yok,yok,yok,kademe_4,iyi,normal,bilinmiyor,50_75_m2,3_oda,orta_4_7_kat,1_banyo,yok,yok,yok,dusuk,yok,yuksek,yok,2_3_Milyon_TL_Arasi
Amasya,Merkez,Satilik,0,4,Kombi_Dogalgaz,bilinmiyor,yok,var,var,var,yok,yok,yok,var,var,yok,var,var,yok,yok,yok,yok,yok,yok,yok,yok,yok,yok,yok,yok,yok,var,yok,yok,yok,yok,kademe_4,kotu,bilinmiyor,bilinmiyor,125_150_m2,4_oda,yuksek_8_15_kat,2_banyo,dusuk,yok,yok,dusuk,yok,yuksek,yok,3_4_Milyon_TL_Arasi
Aksaray,Merkez,Satilik,0,2,Kombi_Dogalgaz,bilinmiyor,yok,yok,yok,var,yok,yok,yok,yok,yok,yok,yok,yok,yok,yok,yok,yok,yok,yok,yok,yok,yok,yok,yok,yok,yok,yok,yok,yok,yok,yok,kademe_4,normal,bilinmiyor,bilinmiyor,150_200_m2,4_oda,orta_4_7_kat,1_banyo,yok,yok,yok,yok,yok,yok,yok,5_7_Bucuk_Milyon_TL_Arasi
Aksaray,Merkez,Satilik,1_5_arasi,1,Kombi,bilinmiyor,yok,var,yok,yok,yok,var,yok,yok,var,yok,yok,yok,yok,yok,yok,yok,yok,yok,yok,yok,yok,yok,yok,yok,yok,var,yok,yok,yok,yok,kademe_4,normal,normal,kotu,150_200_m2,5_oda,orta_4_7_kat,1_banyo,dusuk,yok,yok,orta,orta,dusuk,yok,5_7_Bucuk_Milyon_TL_Arasi
Amasya,Merzifon,Satilik,1_5_arasi,3,Kombi,bilinmiyor,yok,var,yok,var,var,yok,yok,yok,yok,yok,yok,yok,yok,yok,yok,yok,yok,yok,yok,yok,yok,yok,yok,yok,yok,var,yok,yok,yok,yok,kademe_4,kotu,normal,kotu,50_75_m2,2_oda,orta_4_7_kat,1_banyo,yok,yok,yok,dusuk,orta,yuksek,yok,1_5_2_Milyon_TL_Arasi
Amasya,Merkez,Satilik,26_30_arasi,bilinmiyor,Soba,bilinmiyor,yok,yok,yok,yok,yok,yok,yok,yok,yok,yok,yok,yok,yok,yok,yok,yok,yok,yok,yok,yok,yok,yok,yok,yok,yok,yok,yok,yok,yok,yok,kademe_4,kotu,kotu,bilinmiyor,100_125_m2,3_oda,alcak_1_3_kat,1_banyo,yok,yok,yok,dusuk,yok,yok,yok,3_4_Milyon_TL_Arasi
Aksaray,Merkez,Satilik,11_15_arasi,2,Kombi,bilinmiyor,yok,var,var,var,yok,yok,var,var,yok,yok,yok,yok,yok,yok,yok,yok,yok,yok,yok,yok,yok,yok,yok,yok,yok,yok,yok,yok,yok,yok,kademe_4,normal,bilinmiyor,kotu,150_200_m2,4_oda,orta_4_7_kat,2_banyo,yok,yok,yok,dusuk,yok,yok,yok,3_4_Milyon_TL_Arasi
Amasya,Merkez,Satilik,21_25_arasi,4,Kombi,bilinmiyor,yok,var,yok,var,var,yok,yok,yok,yok,yok,var,yok,yok,var,yok,yok,yok,yok,yok,yok,yok,yok,yok,yok,yok,yok,yok,yok,yok,yok,kademe_4,kotu,normal,kotu,100_125_m2,3_oda,orta_4_7_kat,1_banyo,yok,yok,yok,dusuk,orta,yuksek,yok,1_5_2_Milyon_TL_Arasi
Amasya,Merzifon,Satilik,11_15_arasi,5,Kombi,bilinmiyor,yok,var,var,yok,yok,var,var,yok,yok,yok,yok,yok,yok,yok,yok,yok,yok,yok,yok,yok,yok,yok,yok,yok,yok,yok,yok,yok,yok,yok,kademe_4,normal,kotu,kotu,300_m2_ve_ustu,6_oda,orta_4_7_kat,2_banyo,yok,yok,yok,dusuk,yok,yok,yok,5_7_Bucuk_Milyon_TL_Arasi
Amasya,Merzifon,Satilik,0,3,Yerden_Isitma,bilinmiyor,yok,var,yok,var,yok,yok,yok,var,var,yok,yok,yok,yok,yok,yok,yok,yok,yok,yok,yok,yok,yok,yok,yok,yok,yok,yok,yok,yok,yok,kademe_4,iyi,normal,bilinmiyor,50_75_m2,2_oda,orta_4_7_kat,1_banyo,yok,yok,yok,dusuk,yok,yok,yok,1_5_2_Milyon_TL_Arasi
Elazig,Merkez,Satilik,0,1,Kombi,bilinmiyor,yok,var,var,var,yok,yok,yok,var,yok,yok,var,var,yok,yok,yok,yok,yok,yok,yok,yok,yok,yok,var,yok,yok,yok,yok,yok,yok,yok,kademe_4,kotu,normal,kotu,100_125_m2,3_oda,orta_4_7_kat,1_banyo,yok,yok,dusuk,orta,yuksek,orta,yok,3_4_Milyon_TL_Arasi
Amasya,Merzifon,Satilik,26_30_arasi,bilinmiyor,Kombi_Dogalgaz,bilinmiyor,yok,yok,yok,var,yok,var,yok,var,yok,yok,yok,yok,yok,yok,yok,yok,yok,yok,yok,yok,yok,yok,yok,yok,yok,var,yok,yok,yok,yok,kademe_4,kotu,kotu,bilinmiyor,125_150_m2,4_oda,alcak_1_3_kat,1_banyo,yok,yok,yok,dusuk,dusuk,orta,yok,2_3_Milyon_TL_Arasi
Amasya,Merzifon,Satilik,0,2,Yerden_Isitma,bilinmiyor,yok,var,var,yok,yok,var,yok,var,yok,yok,var,yok,yok,yok,yok,yok,yok,yok,yok,yok,yok,yok,yok,yok,yok,var,yok,yok,yok,yok,kademe_4,bilinmiyor,bilinmiyor,bilinmiyor,50_75_m2,2_oda,orta_4_7_kat,1_banyo,yok,yok,yok,dusuk,yuksek,yuksek,yok,2_3_Milyon_TL_Arasi
Afyonkarahisar,Ihsaniye,Satilik,0,Bahce,Yerden_Isitma,bilinmiyor,yok,var,var,var,var,var,var,var,var,yok,yok,yok,yok,yok,yok,yok,yok,yok,yok,yok,yok,yok,yok,yok,yok,yok,yok,yok,yok,yok,kademe_4,normal,iyi,kotu,150_200_m2,4_oda,alcak_1_3_kat,2_banyo,yok,yok,yok,dusuk,yok,yok,yok,7_Bucuk_10_Milyon_TL_Arasi
Aksaray,Merkez,Satilik,0,4,Kombi_Dogalgaz,bilinmiyor,yok,var,var,var,yok,var,var,var,yok,yok,yok,yok,yok,yok,yok,yok,yok,yok,yok,yok,yok,yok,yok,yok,yok,yok,yok,yok,yok,yok,kademe_4,iyi,iyi,iyi,100_125_m2,3_oda,orta_4_7_kat,1_banyo,yok,yok,yok,dusuk,yok,yok,yok,3_4_Milyon_TL_Arasi
Aksaray,Merkez,Satilik,1_5_arasi,Bahce,Yerden_Isitma,bilinmiyor,yok,yok,yok,var,var,yok,yok,yok,yok,yok,yok,yok,yok,yok,yok,yok,yok,yok,yok,yok,yok,yok,yok,yok,yok,yok,yok,yok,yok,yok,kademe_4,normal,normal,bilinmiyor,200_300_m2,5_oda,alcak_1_3_kat,2_banyo,yok,yok,yok,yok,yok,dusuk,yok,10_Milyon_TL_Ustu
Aksaray,Merkez,Satilik,0,2,Yerden_Isitma,bilinmiyor,yok,var,var,yok,var,yok,yok,var,yok,yok,yok,yok,yok,yok,yok,yok,yok,yok,yok,yok,yok,yok,yok,yok,yok,yok,yok,yok,yok,yok,kademe_4,iyi,iyi,iyi,125_150_m2,4_oda,orta_4_7_kat,2_banyo,yok,yok,yok,dusuk,yok,yok,yok,5_7_Bucuk_Milyon_TL_Arasi
Kastamonu,Merkez,Satilik,26_30_arasi,3,Kombi,bilinmiyor,yok,var,yok,var,yok,var,yok,var,yok,yok,var,yok,yok,yok,yok,yok,yok,yok,yok,yok,yok,yok,var,yok,yok,var,yok,yok,yok,yok,kademe_4,kotu,kotu,bilinmiyor,150_200_m2,4_oda,orta_4_7_kat,1_banyo,yok,yok,dusuk,orta,yuksek,yuksek,yok,2_3_Milyon_TL_Arasi
Elazig,Merkez,Satilik,1_5_arasi,3,Kombi_Dogalgaz,bilinmiyor,yok,yok,yok,var,yok,yok,yok,yok,yok,yok,yok,yok,yok,yok,yok,yok,yok,yok,yok,yok,yok,yok,yok,yok,yok,yok,yok,yok,yok,yok,kademe_4,kotu,normal,bilinmiyor,150_200_m2,4_oda,yuksek_8_15_kat,2_banyo,yok,yok,yok,yok,yok,yok,yok,3_4_Milyon_TL_Arasi
Afyonkarahisar,Merkez,Satilik,1_5_arasi,3,Kombi,bilinmiyor,yok,yok,yok,yok,var,yok,yok,yok,yok,yok,yok,yok,yok,yok,yok,yok,yok,yok,yok,yok,yok,yok,yok,yok,yok,yok,yok,yok,yok,yok,kademe_4,normal,normal,kotu,50_75_m2,2_oda,orta_4_7_kat,1_banyo,yok,yok,yok,dusuk,dusuk,yok,yok,1_5_Milyon_TL_Alti
Aksaray,Ortakoy,Satilik,26_30_arasi,bilinmiyor,Kombi_Dogalgaz,bilinmiyor,yok,yok,yok,yok,yok,yok,var,var,yok,yok,yok,yok,yok,yok,yok,yok,yok,yok,yok,yok,yok,yok,yok,yok,yok,yok,yok,yok,yok,yok,kademe_4,kotu,bilinmiyor,bilinmiyor,100_125_m2,3_oda,alcak_1_3_kat,bilinmiyor,yok,yok,yok,dusuk,yok,yok,yok,3_4_Milyon_TL_Arasi
Aksaray,Merkez,Satilik,11_15_arasi,1,Kombi_Dogalgaz,bilinmiyor,yok,var,yok,yok,yok,yok,var,yok,yok,yok,yok,var,yok,yok,yok,yok,yok,yok,yok,yok,yok,yok,yok,yok,yok,yok,yok,yok,yok,yok,kademe_4,iyi,bilinmiyor,bilinmiyor,150_200_m2,4_oda,yuksek_8_15_kat,1_banyo,yok,yok,yok,yok,yok,dusuk,yok,4_5_Milyon_TL_Arasi
Elazig,Merkez,Satilik,6_10_arasi,Bodrum,Kombi_Dogalgaz,bilinmiyor,yok,var,var,var,yok,var,var,var,var,yok,var,var,yok,yok,yok,yok,yok,yok,yok,yok,yok,yok,yok,yok,yok,var,yok,yok,yok,yok,kademe_4,iyi,normal,bilinmiyor,125_150_m2,4_oda,orta_4_7_kat,2_banyo,yok,yok,yok,dusuk,orta,yuksek,yok,1_5_2_Milyon_TL_Arasi
Kastamonu,Merkez,Satilik,31_ve_uzeri,Bahce,Soba,bilinmiyor,yok,var,yok,var,yok,yok,var,var,yok,yok,yok,yok,yok,yok,yok,yok,yok,yok,yok,yok,yok,yok,var,yok,yok,var,yok,yok,yok,yok,kademe_4,normal,kotu,bilinmiyor,150_200_m2,5_oda,orta_4_7_kat,2_banyo,yok,yok,yok,dusuk,dusuk,orta,yok,3_4_Milyon_TL_Arasi
Amasya,Merzifon,Satilik,0,1,Yerden_Isitma,bilinmiyor,yok,yok,yok,var,yok,yok,var,yok,yok,yok,var,yok,yok,yok,yok,yok,yok,yok,yok,yok,yok,yok,yok,yok,yok,var,yok,yok,yok,yok,kademe_4,normal,normal,bilinmiyor,50_75_m2,2_oda,orta_4_7_kat,1_banyo,yok,yok,yok,dusuk,orta,yuksek,yok,1_5_2_Milyon_TL_Arasi
Amasya,Merzifon,Satilik,6_10_arasi,Zemin,Kombi,bilinmiyor,yok,var,yok,yok,var,yok,var,yok,yok,yok,yok,yok,yok,yok,yok,yok,yok,yok,yok,yok,yok,yok,yok,yok,yok,yok,yok,yok,yok,yok,kademe_4,kotu,normal,bilinmiyor,75_100_m2,2_oda,orta_4_7_kat,1_banyo,yok,yok,yok,dusuk,yok,yok,yok,1_5_2_Milyon_TL_Arasi
Aksaray,Merkez,Satilik,0,2,Kombi,bilinmiyor,yok,var,yok,yok,var,yok,var,var,yok,yok,yok,yok,yok,yok,yok,yok,yok,yok,yok,yok,yok,yok,yok,yok,yok,var,yok,yok,yok,yok,kademe_4,iyi,normal,bilinmiyor,50_75_m2,2_oda,orta_4_7_kat,1_banyo,yok,yok,yok,dusuk,orta,dusuk,yok,1_5_Milyon_TL_Alti
Elazig,Merkez,Satilik,11_15_arasi,3,Kombi,bilinmiyor,yok,yok,yok,yok,yok,yok,yok,yok,yok,yok,yok,yok,yok,yok,yok,yok,yok,yok,yok,yok,yok,yok,yok,yok,yok,yok,yok,yok,yok,yok,kademe_4,kotu,normal,kotu,150_200_m2,4_oda,orta_4_7_kat,1_banyo,yok,yok,yok,dusuk,yok,yok,yok,4_5_Milyon_TL_Arasi
Kastamonu,Merkez,Satilik,1_5_arasi,1,Kombi,bilinmiyor,yok,yok,var,var,var,yok,yok,yok,yok,yok,yok,yok,yok,yok,yok,yok,yok,yok,yok,yok,yok,yok,yok,yok,yok,yok,yok,yok,yok,yok,kademe_4,normal,normal,normal,50_75_m2,1_oda,orta_4_7_kat,1_banyo,yok,yok,yok,dusuk,yok,yok,yok,1_5_Milyon_TL_Alti
Amasya,Merzifon,Satilik,21_25_arasi,bilinmiyor,Kombi_Dogalgaz,bilinmiyor,yok,yok,yok,yok,yok,yok,yok,yok,yok,yok,yok,yok,yok,yok,yok,yok,yok,yok,yok,yok,yok,yok,yok,yok,yok,yok,yok,yok,yok,yok,kademe_4,bilinmiyor,bilinmiyor,bilinmiyor,100_125_m2,4_oda,alcak_1_3_kat,1_banyo,yok,yok,yok,dusuk,yok,yok,yok,4_5_Milyon_TL_Arasi
Amasya,Merzifon,Satilik,0,2,Kombi,bilinmiyor,yok,var,var,yok,yok,var,var,yok,yok,yok,yok,yok,yok,yok,yok,yok,yok,yok,yok,yok,yok,yok,yok,yok,yok,yok,yok,yok,yok,yok,kademe_4,iyi,bilinmiyor,bilinmiyor,75_100_m2,2_oda,orta_4_7_kat,1_banyo,yok,yok,yok,dusuk,yok,yok,yok,2_3_Milyon_TL_Arasi
Aksaray,Merkez,Satilik,0,3,Kombi,bilinmiyor,yok,var,var,var,yok,var,var,var,yok,yok,yok,yok,yok,yok,yok,yok,yok,yok,yok,yok,yok,yok,yok,yok,yok,yok,yok,yok,yok,yok,kademe_4,iyi,bilinmiyor,kotu,50_75_m2,2_oda,orta_4_7_kat,1_banyo,yok,yok,yok,dusuk,yok,yok,yok,1_5_Milyon_TL_Alti
Aksaray,Merkez,Satilik,21_25_arasi,3,Kombi,bilinmiyor,yok,var,var,var,yok,var,yok,yok,var,yok,yok,yok,yok,yok,yok,yok,yok,yok,yok,yok,yok,yok,yok,yok,yok,yok,yok,yok,yok,yok,kademe_4,normal,normal,bilinmiyor,125_150_m2,4_oda,orta_4_7_kat,1_banyo,yok,yok,yok,dusuk,yok,yok,yok,3_4_Milyon_TL_Arasi
Kastamonu,Merkez,Satilik,1_5_arasi,Ara_Kat,Kombi_Dogalgaz,bilinmiyor,yok,var,var,var,yok,yok,yok,yok,yok,yok,var,yok,yok,yok,yok,yok,yok,yok,yok,yok,yok,yok,yok,yok,yok,var,yok,yok,yok,yok,kademe_4,iyi,normal,kotu,75_100_m2,3_oda,orta_4_7_kat,1_banyo,dusuk,yok,yok,dusuk,orta,yuksek,yok,3_4_Milyon_TL_Arasi
Amasya,Merkez,Satilik,0,5,Yerden_Isitma,bilinmiyor,yok,var,var,var,yok,var,var,var,yok,yok,var,var,yok,var,yok,yok,yok,yok,yok,yok,yok,yok,yok,yok,yok,var,yok,yok,yok,yok,kademe_4,iyi,normal,kotu,150_200_m2,4_oda,orta_4_7_kat,2_banyo,yok,dusuk,dusuk,dusuk,orta,yuksek,yok,7_Bucuk_10_Milyon_TL_Arasi
Amasya,Merzifon,Satilik,21_25_arasi,bilinmiyor,Kombi_Dogalgaz,bilinmiyor,yok,var,yok,var,yok,yok,var,var,var,yok,var,yok,yok,var,yok,yok,yok,yok,yok,yok,yok,yok,yok,yok,yok,var,yok,yok,yok,yok,kademe_4,bilinmiyor,bilinmiyor,bilinmiyor,125_150_m2,4_oda,orta_4_7_kat,1_banyo,yok,yok,yok,dusuk,yok,orta,yok,7_Bucuk_10_Milyon_TL_Arasi
Afyonkarahisar,Merkez,Satilik,26_30_arasi,Giris,Jeotermal,bilinmiyor,yok,var,var,var,yok,yok,var,var,yok,yok,var,yok,yok,yok,yok,yok,yok,yok,yok,yok,yok,yok,yok,yok,yok,yok,yok,yok,yok,yok,kademe_4,normal,bilinmiyor,bilinmiyor,150_200_m2,4_oda,yuksek_8_15_kat,1_banyo,yok,yok,dusuk,dusuk,orta,orta,yok,3_4_Milyon_TL_Arasi
Kastamonu,Merkez,Satilik,1_5_arasi,Ara_Kat,Kombi_Dogalgaz,bilinmiyor,yok,var,var,var,yok,yok,yok,yok,yok,yok,var,yok,yok,yok,yok,yok,yok,var,yok,yok,yok,yok,var,yok,yok,var,yok,yok,yok,yok,kademe_4,kotu,bilinmiyor,kotu,75_100_m2,3_oda,orta_4_7_kat,1_banyo,dusuk,yok,yok,yok,yok,yuksek,yok,3_4_Milyon_TL_Arasi
Kastamonu,Taskopru,Satilik,6_10_arasi,En_Ust_Kat,Kombi_Dogalgaz,bilinmiyor,yok,var,yok,yok,yok,yok,yok,yok,yok,yok,var,var,yok,yok,yok,yok,yok,var,yok,yok,yok,yok,yok,var,yok,yok,yok,yok,yok,yok,kademe_4,normal,normal,bilinmiyor,100_125_m2,5_oda,orta_4_7_kat,2_banyo,yok,yok,yok,dusuk,dusuk,yuksek,yok,3_4_Milyon_TL_Arasi
Amasya,Merzifon,Satilik,6_10_arasi,Zemin,Kombi,bilinmiyor,yok,yok,var,var,yok,yok,var,var,var,yok,var,yok,yok,yok,yok,yok,yok,yok,yok,yok,yok,yok,var,yok,yok,var,yok,yok,yok,yok,kademe_4,normal,bilinmiyor,bilinmiyor,150_200_m2,4_oda,orta_4_7_kat,1_banyo,yok,yok,dusuk,dusuk,orta,yuksek,yok,2_3_Milyon_TL_Arasi
Afyonkarahisar,Sandikli,Satilik,1_5_arasi,Bahce,Kombi,bilinmiyor,yok,yok,yok,var,yok,yok,var,var,var,yok,var,var,yok,var,yok,yok,yok,yok,yok,yok,yok,yok,yok,yok,yok,yok,yok,yok,yok,var,kademe_4,normal,normal,iyi,200_300_m2,6_oda,orta_4_7_kat,3_banyo_ve_ustu,dusuk,dusuk,yok,orta,orta,yuksek,yok,7_Bucuk_10_Milyon_TL_Arasi
Aksaray,Merkez,Satilik,0,3,Yerden_Isitma,bilinmiyor,yok,var,var,var,yok,var,yok,yok,yok,yok,var,var,yok,var,yok,yok,yok,yok,yok,yok,yok,yok,yok,yok,yok,yok,yok,yok,yok,yok,kademe_4,normal,bilinmiyor,bilinmiyor,150_200_m2,4_oda,orta_4_7_kat,2_banyo,yok,dusuk,yok,dusuk,yok,orta,yok,4_5_Milyon_TL_Arasi
Aksaray,Sariyahsi,Satilik,6_10_arasi,bilinmiyor,Soba,bilinmiyor,yok,var,yok,var,var,var,var,var,var,yok,var,var,yok,yok,yok,yok,yok,yok,yok,yok,var,yok,yok,var,yok,var,yok,yok,yok,var,kademe_4,bilinmiyor,bilinmiyor,bilinmiyor,300_m2_ve_ustu,7_oda_ve_ustu,orta_4_7_kat,3_banyo_ve_ustu,yok,dusuk,yok,dusuk,yok,yuksek,yok,5_7_Bucuk_Milyon_TL_Arasi
Amasya,Merkez,Satilik,6_10_arasi,Giris,Kombi,bilinmiyor,yok,var,yok,yok,yok,yok,yok,var,yok,yok,var,yok,yok,yok,yok,yok,yok,yok,yok,yok,yok,yok,yok,yok,yok,yok,yok,yok,yok,yok,kademe_4,kotu,normal,iyi,150_200_m2,4_oda,orta_4_7_kat,1_banyo,yok,yok,dusuk,yok,orta,yuksek,yok,5_7_Bucuk_Milyon_TL_Arasi
Kastamonu,Merkez,Satilik,26_30_arasi,bilinmiyor,Kombi_Dogalgaz,bilinmiyor,yok,var,yok,var,yok,var,var,var,yok,yok,yok,yok,yok,var,yok,yok,yok,yok,yok,yok,yok,yok,yok,yok,yok,yok,yok,yok,yok,yok,kademe_4,iyi,bilinmiyor,bilinmiyor,200_300_m2,5_oda,orta_4_7_kat,2_banyo,yok,yok,yok,dusuk,yok,dusuk,yok,7_Bucuk_10_Milyon_TL_Arasi
Amasya,Merzifon,Satilik,0,Yuksek_Giris,Kombi,bilinmiyor,yok,yok,yok,yok,yok,yok,yok,var,yok,yok,yok,yok,yok,yok,yok,yok,yok,yok,yok,yok,yok,yok,yok,yok,yok,yok,yok,yok,yok,yok,kademe_4,normal,normal,bilinmiyor,50_75_m2,2_oda,orta_4_7_kat,1_banyo,yok,yok,yok,dusuk,yok,yok,yok,1_5_2_Milyon_TL_Arasi
Amasya,Merzifon,Satilik,31_ve_uzeri,Bahce,Soba,bilinmiyor,yok,var,yok,yok,yok,var,var,var,yok,yok,yok,yok,yok,yok,yok,yok,yok,yok,yok,yok,yok,yok,yok,yok,yok,yok,yok,yok,yok,yok,kademe_4,bilinmiyor,bilinmiyor,bilinmiyor,300_m2_ve_ustu,3_oda,bilinmiyor,1_banyo,yok,yok,yok,dusuk,yok,yok,yok,2_3_Milyon_TL_Arasi
Amasya,Merzifon,Satilik,16_20_arasi,1,Kombi_Dogalgaz,bilinmiyor,yok,yok,var,var,yok,var,var,var,yok,yok,var,yok,yok,var,yok,yok,yok,yok,yok,yok,yok,yok,var,yok,yok,yok,yok,yok,yok,yok,kademe_4,normal,bilinmiyor,kotu,125_150_m2,4_oda,orta_4_7_kat,1_banyo,yok,yok,yok,dusuk,yok,orta,yok,3_4_Milyon_TL_Arasi
Aksaray,Merkez,Satilik,0,Ara_Kat,Kombi_Dogalgaz,bilinmiyor,yok,var,yok,yok,yok,yok,yok,yok,yok,yok,yok,yok,yok,yok,yok,yok,yok,yok,yok,yok,yok,yok,yok,yok,yok,yok,yok,yok,yok,yok,kademe_4,bilinmiyor,bilinmiyor,bilinmiyor,50_75_m2,2_oda,yuksek_8_15_kat,1_banyo,yok,yok,yok,yok,yok,yok,yok,1_5_Milyon_TL_Alti
Aksaray,Merkez,Satilik,1_5_arasi,5,Kombi,bilinmiyor,yok,var,yok,yok,var,yok,yok,var,yok,yok,yok,yok,yok,yok,yok,yok,yok,yok,yok,yok,yok,yok,yok,yok,yok,var,yok,yok,yok,yok,kademe_4,iyi,normal,normal,50_75_m2,2_oda,orta_4_7_kat,1_banyo,yok,yok,dusuk,orta,orta,dusuk,yok,1_5_2_Milyon_TL_Arasi
Kirsehir,Merkez,Satilik,6_10_arasi,1,Kombi_Dogalgaz,bilinmiyor,yok,var,yok,yok,yok,yok,yok,yok,yok,yok,yok,yok,yok,yok,yok,yok,yok,yok,yok,yok,yok,yok,yok,yok,yok,yok,yok,yok,yok,yok,kademe_4,kotu,bilinmiyor,bilinmiyor,200_300_m2,5_oda,orta_4_7_kat,1_banyo,yok,yok,yok,dusuk,yok,yok,yok,5_7_Bucuk_Milyon_TL_Arasi
Amasya,Merkez,Satilik,1_5_arasi,Giris,Kombi,bilinmiyor,yok,var,yok,var,yok,var,yok,yok,yok,yok,var,yok,yok,var,yok,yok,yok,yok,yok,yok,yok,yok,yok,yok,yok,var,yok,yok,yok,yok,kademe_4,iyi,iyi,bilinmiyor,100_125_m2,2_oda,orta_4_7_kat,1_banyo,yok,yok,yok,dusuk,orta,yuksek,yok,2_3_Milyon_TL_Arasi
Amasya,Merzifon,Satilik,1_5_arasi,1,Kombi,bilinmiyor,yok,var,var,yok,var,var,yok,yok,yok,yok,yok,yok,yok,yok,yok,yok,yok,yok,yok,yok,yok,yok,yok,yok,yok,yok,yok,yok,yok,yok,kademe_4,normal,normal,normal,50_75_m2,2_oda,orta_4_7_kat,1_banyo,yok,yok,yok,dusuk,yok,yok,yok,2_3_Milyon_TL_Arasi
Elazig,Merkez,Satilik,6_10_arasi,Yuksek_Giris,Kombi,bilinmiyor,yok,var,var,var,yok,yok,yok,yok,yok,yok,yok,yok,yok,yok,yok,yok,yok,yok,yok,yok,yok,yok,yok,yok,yok,yok,yok,yok,yok,yok,kademe_4,iyi,normal,normal,200_300_m2,5_oda,orta_4_7_kat,2_banyo,yok,yok,yok,dusuk,yok,yok,yok,3_4_Milyon_TL_Arasi
Afyonkarahisar,Merkez,Satilik,0,1,Kombi,bilinmiyor,yok,var,yok,var,var,yok,yok,var,yok,yok,var,yok,yok,yok,yok,yok,yok,yok,yok,yok,yok,yok,yok,yok,yok,var,yok,yok,yok,yok,kademe_4,iyi,iyi,bilinmiyor,300_m2_ve_ustu,2_oda,alcak_1_3_kat,1_banyo,yok,yok,yok,dusuk,orta,yuksek,yok,10_Milyon_TL_Ustu
Artvin,Arhavi,Satilik,16_20_arasi,5,Merkezi,bilinmiyor,yok,var,var,var,yok,yok,yok,yok,yok,yok,yok,yok,yok,yok,yok,yok,yok,yok,yok,yok,yok,yok,var,yok,yok,var,yok,yok,yok,yok,kademe_4,normal,kotu,kotu,200_300_m2,7_oda_ve_ustu,orta_4_7_kat,2_banyo,yok,yok,yok,dusuk,orta,yok,yok,4_5_Milyon_TL_Arasi
Elazig,Merkez,Satilik,0,Ara_Kat,Merkezi,bilinmiyor,yok,yok,yok,yok,yok,yok,yok,yok,yok,yok,yok,yok,yok,yok,yok,yok,yok,yok,yok,yok,yok,yok,yok,yok,yok,yok,yok,yok,yok,yok,kademe_4,kotu,kotu,iyi,150_200_m2,4_oda,orta_4_7_kat,2_banyo,yok,yok,yok,dusuk,yok,yok,yok,1_5_Milyon_TL_Alti
Kastamonu,Abana,Satilik,1_5_arasi,2,Kombi,bilinmiyor,yok,var,var,var,yok,yok,var,var,var,yok,var,var,yok,var,yok,yok,yok,yok,yok,yok,yok,yok,var,yok,yok,var,yok,yok,yok,yok,kademe_4,iyi,kotu,normal,125_150_m2,4_oda,orta_4_7_kat,2_banyo,dusuk,yok,dusuk,orta,yuksek,yuksek,yok,5_7_Bucuk_Milyon_TL_Arasi
Kirsehir,Merkez,Satilik,0,1,Kombi_Dogalgaz,bilinmiyor,yok,var,var,var,yok,var,var,var,var,yok,var,var,yok,yok,yok,yok,yok,yok,yok,yok,yok,yok,yok,yok,yok,var,yok,yok,yok,yok,kademe_4,iyi,iyi,bilinmiyor,150_200_m2,5_oda,orta_4_7_kat,2_banyo,yok,dusuk,yok,dusuk,yok,orta,yok,5_7_Bucuk_Milyon_TL_Arasi
Amasya,Merzifon,Satilik,6_10_arasi,1,Kombi_Dogalgaz,bilinmiyor,yok,yok,yok,yok,yok,yok,var,var,yok,yok,yok,yok,yok,yok,yok,yok,yok,yok,yok,yok,yok,yok,yok,yok,yok,yok,yok,yok,yok,yok,kademe_4,iyi,normal,kotu,50_75_m2,2_oda,orta_4_7_kat,1_banyo,yok,yok,yok,dusuk,yok,yok,yok,1_5_Milyon_TL_Alti
Aksaray,Ortakoy,Satilik,6_10_arasi,1,bilinmiyor,bilinmiyor,yok,var,yok,yok,yok,yok,yok,yok,yok,yok,yok,yok,yok,yok,yok,yok,yok,yok,yok,yok,yok,yok,yok,yok,yok,yok,yok,yok,yok,yok,kademe_4,bilinmiyor,bilinmiyor,bilinmiyor,75_100_m2,3_oda,alcak_1_3_kat,1_banyo,yok,yok,yok,dusuk,yok,yok,yok,1_5_2_Milyon_TL_Arasi
Amasya,Merzifon,Satilik,6_10_arasi,4,Kombi_Dogalgaz,bilinmiyor,yok,var,yok,yok,yok,yok,yok,yok,yok,yok,yok,yok,yok,yok,yok,yok,yok,yok,yok,yok,yok,yok,yok,yok,yok,yok,yok,yok,yok,yok,kademe_4,normal,kotu,kotu,125_150_m2,4_oda,orta_4_7_kat,1_banyo,yok,yok,yok,dusuk,yok,yok,yok,2_3_Milyon_TL_Arasi
Amasya,Merkez,Satilik,6_10_arasi,5,Kombi,bilinmiyor,yok,var,yok,var,yok,yok,yok,var,yok,yok,var,yok,yok,yok,yok,yok,yok,yok,yok,yok,yok,yok,var,yok,yok,var,yok,yok,yok,yok,kademe_4,normal,iyi,bilinmiyor,125_150_m2,4_oda,orta_4_7_kat,1_banyo,dusuk,yok,yok,dusuk,dusuk,orta,yok,3_4_Milyon_TL_Arasi
Amasya,Merkez,Satilik,0,1,Yerden_Isitma,bilinmiyor,yok,var,yok,var,yok,var,var,yok,yok,yok,var,yok,yok,yok,yok,yok,yok,yok,yok,yok,yok,yok,yok,yok,yok,var,yok,yok,yok,yok,kademe_4,bilinmiyor,bilinmiyor,normal,75_100_m2,3_oda,orta_4_7_kat,1_banyo,yok,yok,dusuk,dusuk,orta,orta,yok,4_5_Milyon_TL_Arasi
Amasya,Merzifon,Satilik,0,En_Ust_Kat,Kombi_Dogalgaz,bilinmiyor,yok,var,var,yok,yok,var,var,yok,yok,yok,var,yok,yok,var,yok,yok,yok,yok,yok,yok,yok,yok,yok,yok,yok,yok,yok,yok,yok,yok,kademe_4,normal,normal,normal,50_75_m2,2_oda,orta_4_7_kat,1_banyo,dusuk,yok,yok,dusuk,yok,yuksek,yok,3_4_Milyon_TL_Arasi
Kastamonu,Tosya,Satilik,16_20_arasi,3,Kombi_Dogalgaz,bilinmiyor,yok,var,yok,var,yok,var,yok,var,yok,yok,yok,yok,yok,yok,yok,yok,yok,yok,yok,yok,yok,yok,yok,yok,yok,yok,yok,yok,yok,yok,kademe_4,bilinmiyor,iyi,bilinmiyor,150_200_m2,4_oda,orta_4_7_kat,1_banyo,yok,yok,yok,dusuk,yok,yok,yok,4_5_Milyon_TL_Arasi
Amasya,Merkez,Satilik,16_20_arasi,bilinmiyor,Soba,bilinmiyor,yok,yok,yok,yok,yok,yok,yok,yok,yok,yok,var,yok,yok,yok,yok,yok,yok,yok,yok,yok,yok,yok,yok,yok,yok,var,yok,yok,yok,yok,kademe_4,kotu,kotu,bilinmiyor,50_75_m2,2_oda,alcak_1_3_kat,1_banyo,yok,yok,yok,dusuk,dusuk,dusuk,yok,1_5_Milyon_TL_Alti
Afyonkarahisar,Merkez,Satilik,0,1,Kombi,bilinmiyor,yok,var,var,var,yok,yok,yok,yok,yok,yok,yok,yok,yok,yok,yok,yok,yok,yok,yok,yok,yok,yok,yok,yok,yok,yok,yok,yok,yok,yok,kademe_4,kotu,normal,kotu,125_150_m2,4_oda,orta_4_7_kat,2_banyo,yok,yok,yok,yok,yok,yok,yok,5_7_Bucuk_Milyon_TL_Arasi
Kastamonu,Tosya,Satilik,6_10_arasi,Zemin,Merkezi,bilinmiyor,yok,yok,yok,yok,yok,yok,yok,yok,yok,yok,yok,yok,yok,yok,yok,yok,yok,yok,yok,yok,yok,yok,yok,yok,yok,yok,yok,yok,yok,yok,kademe_4,bilinmiyor,bilinmiyor,bilinmiyor,75_100_m2,3_oda,orta_4_7_kat,1_banyo,yok,yok,yok,dusuk,yok,yok,yok,2_3_Milyon_TL_Arasi
Aksaray,Merkez,Satilik,0,3,Kombi,bilinmiyor,yok,var,var,var,var,yok,yok,yok,yok,yok,yok,yok,yok,yok,yok,yok,yok,yok,yok,yok,yok,yok,yok,yok,yok,yok,yok,yok,yok,yok,kademe_4,iyi,normal,bilinmiyor,50_75_m2,2_oda,orta_4_7_kat,1_banyo,yok,yok,yok,dusuk,yok,yok,yok,1_5_2_Milyon_TL_Arasi
Amasya,Merzifon,Satilik,16_20_arasi,2,Kombi_Dogalgaz,bilinmiyor,yok,var,yok,yok,yok,var,yok,var,var,yok,yok,yok,yok,yok,yok,yok,yok,yok,yok,yok,yok,yok,yok,yok,yok,yok,yok,yok,yok,yok,kademe_4,iyi,kotu,bilinmiyor,125_150_m2,4_oda,orta_4_7_kat,2_banyo,yok,yok,yok,dusuk,dusuk,yok,yok,3_4_Milyon_TL_Arasi
Kastamonu,Merkez,Satilik,6_10_arasi,6,Merkezi,bilinmiyor,yok,var,var,var,yok,var,yok,var,yok,yok,var,yok,yok,var,yok,yok,yok,yok,yok,yok,yok,yok,yok,yok,yok,var,var,yok,yok,yok,kademe_4,normal,normal,normal,100_125_m2,5_oda,orta_4_7_kat,2_banyo,dusuk,yok,yok,dusuk,yok,orta,yok,4_5_Milyon_TL_Arasi
Amasya,Merzifon,Satilik,6_10_arasi,1,Kombi_Dogalgaz,bilinmiyor,yok,var,var,var,yok,yok,yok,var,yok,yok,yok,yok,yok,var,yok,yok,yok,yok,yok,yok,yok,yok,yok,yok,yok,yok,yok,yok,yok,yok,kademe_4,bilinmiyor,iyi,kotu,200_300_m2,6_oda,orta_4_7_kat,1_banyo,yok,yok,yok,dusuk,yok,orta,yok,3_4_Milyon_TL_Arasi
Aksaray,Merkez,Satilik,0,1,Kombi,bilinmiyor,yok,var,yok,var,yok,yok,var,yok,var,yok,var,yok,yok,yok,yok,yok,yok,yok,yok,yok,yok,yok,yok,yok,yok,var,yok,yok,yok,yok,kademe_4,iyi,normal,iyi,50_75_m2,2_oda,orta_4_7_kat,1_banyo,yok,yok,yok,yok,orta,yuksek,yok,1_5_2_Milyon_TL_Arasi
Amasya,Merzifon,Satilik,6_10_arasi,5,Kombi,bilinmiyor,yok,var,var,var,yok,yok,yok,var,var,yok,var,var,yok,yok,yok,yok,yok,yok,yok,yok,yok,yok,var,yok,yok,var,yok,yok,yok,yok,kademe_4,bilinmiyor,normal,bilinmiyor,150_200_m2,4_oda,orta_4_7_kat,2_banyo,yok,yok,dusuk,orta,orta,yuksek,yok,4_5_Milyon_TL_Arasi
Amasya,Merzifon,Satilik,6_10_arasi,2,Kombi_Dogalgaz,bilinmiyor,yok,var,var,yok,yok,yok,var,var,yok,yok,var,yok,yok,yok,yok,yok,yok,yok,yok,yok,yok,yok,yok,yok,yok,yok,yok,yok,yok,yok,kademe_4,normal,normal,bilinmiyor,100_125_m2,3_oda,orta_4_7_kat,1_banyo,dusuk,yok,yok,dusuk,yok,yuksek,yok,3_4_Milyon_TL_Arasi
Artvin,Arhavi,Satilik,31_ve_uzeri,1,bilinmiyor,bilinmiyor,yok,var,yok,yok,yok,yok,yok,yok,yok,yok,yok,yok,yok,yok,yok,yok,yok,yok,yok,yok,yok,yok,yok,yok,yok,yok,yok,yok,yok,yok,kademe_4,bilinmiyor,bilinmiyor,bilinmiyor,75_100_m2,4_oda,alcak_1_3_kat,1_banyo,yok,yok,yok,dusuk,yok,yok,yok,2_3_Milyon_TL_Arasi
Amasya,Merkez,Satilik,16_20_arasi,Ara_Kat,Kat_Kaloriferi,bilinmiyor,yok,yok,var,yok,yok,var,yok,var,yok,yok,var,yok,yok,yok,yok,yok,yok,yok,yok,yok,yok,yok,yok,yok,yok,yok,yok,yok,yok,yok,kademe_4,kotu,kotu,bilinmiyor,125_150_m2,4_oda,orta_4_7_kat,1_banyo,yok,yok,yok,dusuk,yok,orta,yok,3_4_Milyon_TL_Arasi
Amasya,Merzifon,Satilik,1_5_arasi,2,Kombi,bilinmiyor,yok,var,yok,var,var,yok,yok,yok,yok,yok,yok,yok,yok,yok,yok,yok,yok,yok,yok,yok,yok,yok,yok,yok,yok,var,yok,yok,yok,yok,kademe_4,normal,normal,kotu,100_125_m2,2_oda,orta_4_7_kat,1_banyo,yok,yok,yok,dusuk,orta,yok,yok,3_4_Milyon_TL_Arasi
Amasya,Merzifon,Satilik,1_5_arasi,1,Kombi_Dogalgaz,bilinmiyor,yok,var,var,var,var,yok,var,yok,var,yok,yok,yok,yok,var,yok,yok,yok,yok,yok,yok,yok,yok,yok,yok,yok,yok,yok,yok,yok,yok,kademe_4,iyi,normal,bilinmiyor,75_100_m2,2_oda,orta_4_7_kat,1_banyo,dusuk,yok,yok,dusuk,yok,orta,yok,2_3_Milyon_TL_Arasi
Sivas,Merkez,Satilik,0,Ara_Kat,Yerden_Isitma,bilinmiyor,yok,var,var,var,yok,var,yok,yok,var,yok,var,var,yok,var,yok,yok,yok,yok,yok,yok,yok,yok,var,yok,yok,var,yok,yok,yok,yok,kademe_4,kotu,bilinmiyor,kotu,125_150_m2,4_oda,yuksek_8_15_kat,2_banyo,dusuk,dusuk,yok,dusuk,orta,dusuk,yok,4_5_Milyon_TL_Arasi
Amasya,Merkez,Satilik,6_10_arasi,3,Kombi,bilinmiyor,yok,var,yok,yok,yok,yok,yok,var,yok,yok,yok,yok,yok,yok,yok,yok,yok,yok,yok,yok,yok,yok,yok,yok,yok,yok,yok,yok,yok,yok,kademe_4,iyi,normal,kotu,150_200_m2,4_oda,orta_4_7_kat,1_banyo,yok,yok,yok,dusuk,yok,yok,yok,5_7_Bucuk_Milyon_TL_Arasi
Kastamonu,Merkez,Satilik,21_25_arasi,1,Kombi_Dogalgaz,bilinmiyor,yok,var,yok,var,var,yok,var,var,yok,yok,yok,yok,yok,yok,yok,yok,yok,yok,yok,yok,yok,yok,yok,yok,yok,yok,yok,yok,yok,yok,kademe_4,normal,bilinmiyor,kotu,100_125_m2,3_oda,orta_4_7_kat,1_banyo,yok,yok,yok,dusuk,yok,yok,yok,3_4_Milyon_TL_Arasi
Aksaray,Merkez,Satilik,16_20_arasi,Bahce,Kombi,bilinmiyor,yok,var,yok,yok,yok,yok,yok,yok,yok,yok,yok,yok,yok,yok,yok,yok,yok,yok,yok,yok,yok,yok,yok,yok,yok,yok,yok,yok,yok,yok,kademe_4,normal,normal,bilinmiyor,125_150_m2,4_oda,bilinmiyor,1_banyo,yok,yok,yok,yok,yok,yok,yok,4_5_Milyon_TL_Arasi
Sivas,Merkez,Satilik,11_15_arasi,2,Kombi,bilinmiyor,yok,var,yok,var,yok,yok,var,yok,yok,yok,yok,yok,yok,var,yok,yok,yok,yok,yok,yok,yok,yok,var,yok,yok,var,yok,yok,yok,yok,kademe_4,iyi,normal,bilinmiyor,125_150_m2,4_oda,orta_4_7_kat,1_banyo,yok,yok,dusuk,dusuk,yuksek,orta,yok,3_4_Milyon_TL_Arasi
Kastamonu,Merkez,Satilik,6_10_arasi,2,Kombi,bilinmiyor,yok,var,var,var,var,yok,yok,var,yok,yok,var,yok,yok,var,yok,yok,yok,yok,yok,yok,yok,yok,yok,yok,yok,var,yok,yok,yok,yok,kademe_4,bilinmiyor,iyi,bilinmiyor,50_75_m2,2_oda,orta_4_7_kat,1_banyo,yok,yok,dusuk,orta,yuksek,yuksek,yok,2_3_Milyon_TL_Arasi
Amasya,Merkez,Satilik,0,2,Kombi_Dogalgaz,bilinmiyor,yok,var,var,var,yok,yok,yok,var,yok,yok,var,yok,yok,yok,yok,yok,yok,yok,yok,yok,yok,yok,var,yok,yok,var,yok,yok,yok,yok,kademe_4,bilinmiyor,normal,bilinmiyor,100_125_m2,3_oda,orta_4_7_kat,1_banyo,yok,yok,yok,orta,yok,dusuk,yok,3_4_Milyon_TL_Arasi
Aksaray,Sariyahsi,Satilik,11_15_arasi,Bahce,Soba,bilinmiyor,yok,yok,yok,var,yok,yok,yok,yok,yok,yok,yok,yok,yok,yok,yok,yok,yok,yok,yok,yok,yok,yok,yok,yok,yok,yok,yok,yok,yok,yok,kademe_4,iyi,bilinmiyor,kotu,300_m2_ve_ustu,7_oda_ve_ustu,alcak_1_3_kat,2_banyo,yok,yok,yok,dusuk,yok,yok,yok,3_4_Milyon_TL_Arasi
Amasya,Merzifon,Satilik,16_20_arasi,bilinmiyor,Kombi,bilinmiyor,yok,var,yok,yok,yok,var,var,var,var,yok,yok,yok,yok,yok,yok,yok,yok,yok,yok,yok,yok,yok,yok,yok,yok,yok,yok,yok,yok,yok,kademe_4,bilinmiyor,bilinmiyor,bilinmiyor,300_m2_ve_ustu,4_oda,alcak_1_3_kat,2_banyo,yok,yok,yok,dusuk,yok,yok,yok,7_Bucuk_10_Milyon_TL_Arasi
Kirsehir,Merkez,Satilik,0,Yuksek_Giris,Merkezi,bilinmiyor,yok,var,var,yok,yok,yok,yok,yok,yok,yok,yok,yok,yok,yok,yok,yok,yok,yok,yok,yok,yok,yok,yok,yok,yok,yok,yok,yok,yok,yok,kademe_4,iyi,normal,kotu,100_125_m2,4_oda,orta_4_7_kat,2_banyo,yok,yok,yok,dusuk,yok,yok,yok,3_4_Milyon_TL_Arasi
Amasya,Merkez,Satilik,26_30_arasi,1,Kombi_Dogalgaz,bilinmiyor,yok,var,yok,yok,yok,yok,yok,yok,yok,yok,yok,yok,yok,yok,yok,yok,yok,yok,yok,yok,yok,yok,yok,yok,yok,yok,yok,yok,yok,yok,kademe_4,kotu,kotu,bilinmiyor,100_125_m2,3_oda,orta_4_7_kat,1_banyo,yok,yok,yok,dusuk,yok,yok,yok,2_3_Milyon_TL_Arasi
Amasya,Merzifon,Satilik,6_10_arasi,2,Kombi_Dogalgaz,bilinmiyor,yok,var,var,var,yok,yok,yok,var,yok,yok,var,yok,yok,var,yok,yok,yok,yok,yok,yok,yok,yok,var,yok,yok,var,yok,yok,yok,yok,kademe_4,normal,normal,kotu,100_125_m2,3_oda,orta_4_7_kat,1_banyo,yok,yok,yok,dusuk,dusuk,yuksek,yok,2_3_Milyon_TL_Arasi
Elazig,Merkez,Satilik,21_25_arasi,1,bilinmiyor,bilinmiyor,yok,var,yok,yok,yok,yok,yok,yok,yok,yok,yok,yok,yok,yok,yok,yok,yok,yok,yok,yok,yok,yok,yok,yok,yok,yok,yok,yok,yok,yok,kademe_4,kotu,bilinmiyor,bilinmiyor,200_300_m2,5_oda,alcak_1_3_kat,2_banyo,yok,yok,yok,dusuk,yok,yok,yok,5_7_Bucuk_Milyon_TL_Arasi
Amasya,Suluova,Satilik,0,Yuksek_Giris,Kombi_Dogalgaz,bilinmiyor,yok,yok,yok,var,yok,yok,yok,yok,yok,yok,yok,yok,yok,yok,yok,yok,yok,yok,yok,yok,yok,yok,yok,yok,yok,yok,yok,yok,yok,yok,kademe_4,iyi,bilinmiyor,kotu,125_150_m2,4_oda,orta_4_7_kat,2_banyo,yok,yok,yok,dusuk,yok,yok,yok,3_4_Milyon_TL_Arasi
Aksaray,Merkez,Satilik,0,1,Kombi,bilinmiyor,yok,var,yok,yok,yok,yok,yok,yok,yok,yok,yok,yok,yok,yok,yok,yok,yok,yok,yok,yok,yok,yok,yok,yok,yok,yok,yok,yok,yok,yok,kademe_4,iyi,bilinmiyor,normal,50_75_m2,2_oda,orta_4_7_kat,1_banyo,yok,yok,yok,dusuk,yok,yok,yok,1_5_2_Milyon_TL_Arasi
Afyonkarahisar,Sinanpasa,Satilik,16_20_arasi,bilinmiyor,Soba,bilinmiyor,yok,yok,yok,yok,yok,var,yok,var,yok,yok,yok,yok,yok,yok,yok,yok,yok,yok,yok,yok,yok,yok,yok,yok,yok,yok,yok,yok,yok,yok,kademe_4,bilinmiyor,bilinmiyor,bilinmiyor,300_m2_ve_ustu,3_oda,alcak_1_3_kat,1_banyo,yok,yok,yok,dusuk,yok,yok,yok,3_4_Milyon_TL_Arasi
Kastamonu,Merkez,Satilik,16_20_arasi,2,Kombi,bilinmiyor,yok,var,yok,var,yok,var,yok,var,var,yok,var,yok,yok,var,yok,yok,yok,yok,yok,yok,yok,yok,var,yok,yok,var,yok,yok,yok,yok,kademe_4,normal,kotu,bilinmiyor,125_150_m2,4_oda,orta_4_7_kat,1_banyo,yok,yok,dusuk,dusuk,yuksek,yuksek,yok,3_4_Milyon_TL_Arasi
Sivas,Gurun,Satilik,11_15_arasi,3,Kombi_Dogalgaz,bilinmiyor,yok,yok,yok,yok,yok,yok,var,var,yok,yok,yok,yok,yok,yok,yok,yok,yok,yok,yok,yok,yok,yok,var,yok,yok,yok,yok,yok,yok,yok,kademe_4,bilinmiyor,normal,kotu,100_125_m2,3_oda,orta_4_7_kat,1_banyo,yok,yok,yok,dusuk,dusuk,dusuk,yok,2_3_Milyon_TL_Arasi
Afyonkarahisar,Merkez,Satilik,21_25_arasi,3,Kombi_Dogalgaz,bilinmiyor,yok,yok,yok,yok,yok,yok,yok,yok,yok,yok,yok,yok,yok,yok,yok,yok,yok,yok,yok,yok,yok,yok,yok,yok,yok,yok,yok,yok,yok,yok,kademe_4,kotu,normal,kotu,125_150_m2,4_oda,orta_4_7_kat,1_banyo,yok,yok,yok,dusuk,yok,yok,yok,2_3_Milyon_TL_Arasi
Aksaray,Merkez,Satilik,1_5_arasi,2,Kombi,bilinmiyor,yok,var,yok,var,var,yok,yok,var,yok,yok,var,yok,yok,yok,yok,yok,yok,yok,yok,yok,yok,yok,var,yok,yok,var,yok,yok,yok,yok,kademe_4,normal,iyi,bilinmiyor,0_50_m2,2_oda,orta_4_7_kat,1_banyo,yok,yok,dusuk,dusuk,yuksek,yuksek,yok,1_5_2_Milyon_TL_Arasi
Amasya,Merzifon,Satilik,11_15_arasi,2,Kombi_Dogalgaz,bilinmiyor,yok,var,yok,yok,yok,yok,yok,yok,yok,yok,yok,yok,yok,yok,yok,yok,yok,yok,yok,yok,yok,yok,yok,yok,yok,yok,yok,yok,yok,yok,kademe_4,bilinmiyor,normal,kotu,125_150_m2,4_oda,orta_4_7_kat,1_banyo,yok,yok,yok,dusuk,yok,yok,yok,3_4_Milyon_TL_Arasi
Afyonkarahisar,Iscehisar,Satilik,1_5_arasi,bilinmiyor,Soba,bilinmiyor,yok,var,yok,var,yok,var,var,var,var,yok,yok,yok,yok,yok,yok,yok,yok,yok,yok,yok,yok,yok,yok,var,yok,yok,yok,yok,yok,yok,kademe_4,kotu,bilinmiyor,kotu,300_m2_ve_ustu,3_oda,alcak_1_3_kat,1_banyo,yok,yok,yok,dusuk,yok,orta,yok,1_5_Milyon_TL_Alti
Sivas,Merkez,Satilik,16_20_arasi,3,Kombi,bilinmiyor,yok,var,yok,var,yok,var,var,var,yok,yok,var,var,yok,var,yok,yok,yok,yok,yok,yok,yok,yok,yok,yok,yok,var,yok,yok,yok,yok,kademe_4,normal,normal,kotu,300_m2_ve_ustu,7_oda_ve_ustu,orta_4_7_kat,2_banyo,dusuk,dusuk,dusuk,dusuk,yuksek,yuksek,yok,3_4_Milyon_TL_Arasi
Amasya,Merzifon,Satilik,1_5_arasi,4,Kombi_Dogalgaz,bilinmiyor,yok,var,yok,yok,yok,yok,yok,yok,yok,yok,yok,yok,yok,yok,yok,yok,yok,yok,yok,yok,yok,yok,yok,yok,yok,yok,yok,yok,yok,yok,kademe_4,iyi,normal,normal,75_100_m2,3_oda,orta_4_7_kat,1_banyo,yok,yok,yok,dusuk,yok,yok,yok,2_3_Milyon_TL_Arasi
Afyonkarahisar,Merkez,Satilik,0,1,Kombi,bilinmiyor,yok,var,yok,var,yok,yok,yok,yok,yok,yok,yok,yok,yok,yok,yok,yok,yok,yok,yok,yok,yok,yok,yok,yok,yok,yok,yok,yok,yok,yok,kademe_4,normal,bilinmiyor,iyi,125_150_m2,4_oda,orta_4_7_kat,2_banyo,yok,yok,yok,dusuk,yok,yok,yok,5_7_Bucuk_Milyon_TL_Arasi
Aksaray,Ortakoy,Satilik,6_10_arasi,1,bilinmiyor,bilinmiyor,yok,var,yok,yok,yok,yok,yok,yok,yok,yok,yok,yok,yok,yok,yok,yok,yok,yok,yok,yok,yok,yok,yok,yok,yok,yok,yok,yok,yok,yok,kademe_4,bilinmiyor,bilinmiyor,bilinmiyor,0_50_m2,2_oda,alcak_1_3_kat,1_banyo,yok,yok,yok,dusuk,yok,yok,yok,1_5_Milyon_TL_Alti
Amasya,Merkez,Satilik,1_5_arasi,Yuksek_Giris,Kombi,bilinmiyor,yok,var,yok,var,yok,yok,yok,var,yok,yok,var,yok,yok,yok,yok,yok,yok,yok,yok,yok,yok,yok,yok,yok,yok,yok,yok,yok,yok,yok,kademe_4,normal,iyi,bilinmiyor,125_150_m2,3_oda,orta_4_7_kat,1_banyo,yok,yok,dusuk,dusuk,orta,orta,yok,3_4_Milyon_TL_Arasi
Elazig,Merkez,Satilik,6_10_arasi,2,Merkezi,bilinmiyor,yok,var,var,var,yok,var,var,var,yok,yok,var,var,yok,yok,yok,yok,yok,yok,yok,yok,yok,yok,yok,yok,yok,var,yok,yok,yok,yok,kademe_4,normal,normal,iyi,200_300_m2,5_oda,yuksek_8_15_kat,2_banyo,dusuk,dusuk,dusuk,dusuk,orta,yuksek,yok,4_5_Milyon_TL_Arasi
Afyonkarahisar,Suhut,Satilik,21_25_arasi,bilinmiyor,Kombi_Dogalgaz,bilinmiyor,yok,var,yok,yok,yok,yok,var,var,var,yok,yok,yok,yok,yok,yok,yok,yok,yok,yok,yok,yok,yok,var,yok,yok,var,yok,yok,yok,yok,kademe_4,kotu,bilinmiyor,bilinmiyor,100_125_m2,3_oda,orta_4_7_kat,1_banyo,yok,yok,yok,dusuk,yok,yok,yok,5_7_Bucuk_Milyon_TL_Arasi
Kastamonu,Bozkurt,Satilik,6_10_arasi,Zemin,Kombi,bilinmiyor,yok,yok,yok,yok,yok,yok,yok,yok,yok,yok,yok,yok,yok,yok,yok,yok,yok,yok,yok,yok,yok,yok,yok,yok,yok,yok,yok,yok,yok,yok,kademe_4,kotu,bilinmiyor,bilinmiyor,75_100_m2,3_oda,yuksek_8_15_kat,1_banyo,yok,yok,yok,dusuk,yok,yok,yok,1_5_2_Milyon_TL_Arasi
Amasya,Merzifon,Satilik,21_25_arasi,4,Kombi_Dogalgaz,bilinmiyor,yok,yok,var,yok,yok,var,yok,yok,var,yok,var,yok,yok,yok,yok,yok,yok,yok,yok,yok,yok,yok,yok,yok,yok,yok,yok,yok,yok,yok,kademe_4,kotu,bilinmiyor,kotu,125_150_m2,4_oda,orta_4_7_kat,1_banyo,yok,yok,yok,dusuk,yok,orta,yok,2_3_Milyon_TL_Arasi
Amasya,Merkez,Satilik,16_20_arasi,Zemin,Kombi_Dogalgaz,bilinmiyor,yok,var,yok,yok,var,yok,yok,var,yok,yok,yok,yok,yok,yok,yok,yok,yok,yok,yok,yok,yok,yok,yok,yok,yok,var,yok,yok,yok,yok,kademe_4,kotu,bilinmiyor,kotu,150_200_m2,4_oda,orta_4_7_kat,1_banyo,yok,yok,yok,dusuk,dusuk,orta,yok,2_3_Milyon_TL_Arasi
Amasya,Merzifon,Satilik,1_5_arasi,Zemin,Kombi,bilinmiyor,yok,yok,yok,yok,yok,yok,yok,var,yok,yok,yok,yok,yok,yok,yok,yok,yok,yok,yok,yok,yok,yok,yok,yok,yok,yok,yok,yok,yok,yok,kademe_4,normal,kotu,normal,50_75_m2,2_oda,orta_4_7_kat,1_banyo,yok,yok,yok,dusuk,yok,yok,yok,1_5_Milyon_TL_Alti
Aksaray,Merkez,Satilik,0,Yuksek_Giris,Yerden_Isitma,bilinmiyor,yok,var,yok,yok,yok,yok,yok,yok,yok,yok,yok,yok,yok,yok,yok,yok,yok,yok,yok,yok,yok,yok,yok,yok,yok,yok,yok,yok,yok,yok,kademe_4,bilinmiyor,normal,iyi,0_50_m2,2_oda,orta_4_7_kat,1_banyo,yok,yok,yok,yok,yok,yok,yok,1_5_Milyon_TL_Alti
Kirsehir,Mucur,Satilik,6_10_arasi,5,Kombi_Dogalgaz,bilinmiyor,yok,yok,yok,yok,yok,yok,yok,yok,yok,yok,yok,yok,yok,yok,yok,yok,yok,yok,yok,yok,yok,yok,yok,yok,yok,yok,yok,yok,yok,yok,kademe_4,bilinmiyor,bilinmiyor,bilinmiyor,125_150_m2,4_oda,yuksek_8_15_kat,1_banyo,yok,yok,yok,dusuk,yok,yok,yok,2_3_Milyon_TL_Arasi
Aksaray,Merkez,Satilik,0,Yuksek_Giris,Yerden_Isitma,bilinmiyor,yok,var,yok,var,yok,yok,yok,yok,yok,yok,yok,yok,yok,yok,yok,yok,yok,yok,yok,yok,yok,yok,yok,yok,yok,yok,yok,yok,yok,yok,kademe_4,normal,kotu,bilinmiyor,75_100_m2,3_oda,orta_4_7_kat,1_banyo,yok,yok,yok,yok,yok,yok,yok,3_4_Milyon_TL_Arasi
Afyonkarahisar,Ihsaniye,Satilik,0,Bahce,Jeotermal,bilinmiyor,yok,yok,yok,var,yok,yok,var,var,yok,yok,yok,yok,yok,yok,yok,yok,yok,yok,yok,yok,yok,yok,var,yok,yok,yok,yok,yok,yok,yok,kademe_4,iyi,iyi,kotu,125_150_m2,3_oda,alcak_1_3_kat,1_banyo,yok,dusuk,yok,dusuk,dusuk,yok,yok,5_7_Bucuk_Milyon_TL_Arasi
Afyonkarahisar,Suhut,Satilik,31_ve_uzeri,bilinmiyor,Dogalgaz_Sobasi,bilinmiyor,yok,yok,yok,yok,yok,yok,yok,yok,yok,yok,yok,yok,yok,yok,yok,yok,yok,yok,yok,yok,yok,yok,yok,yok,yok,yok,yok,yok,yok,yok,kademe_4,bilinmiyor,bilinmiyor,bilinmiyor,125_150_m2,4_oda,alcak_1_3_kat,1_banyo,yok,yok,yok,dusuk,yok,yok,yok,4_5_Milyon_TL_Arasi
Amasya,Merkez,Satilik,11_15_arasi,Bahce,Kat_Kaloriferi,bilinmiyor,yok,var,var,var,yok,yok,yok,yok,var,yok,var,yok,yok,yok,yok,yok,yok,yok,yok,yok,yok,yok,yok,yok,yok,var,var,var,yok,yok,kademe_4,kotu,kotu,kotu,150_200_m2,4_oda,orta_4_7_kat,1_banyo,dusuk,yok,yok,dusuk,yok,yuksek,yok,3_4_Milyon_TL_Arasi
Afyonkarahisar,Merkez,Satilik,21_25_arasi,2,Kombi_Dogalgaz,bilinmiyor,yok,var,yok,yok,yok,yok,yok,var,yok,yok,yok,yok,yok,yok,yok,yok,yok,yok,yok,yok,yok,yok,yok,yok,yok,yok,yok,yok,yok,yok,kademe_4,normal,normal,kotu,100_125_m2,3_oda,orta_4_7_kat,1_banyo,yok,yok,yok,dusuk,yok,yok,yok,2_3_Milyon_TL_Arasi
Amasya,Merzifon,Satilik,1_5_arasi,2,Kombi,bilinmiyor,yok,var,var,var,yok,yok,yok,yok,yok,yok,yok,yok,yok,yok,yok,yok,yok,yok,yok,yok,yok,yok,yok,yok,yok,yok,yok,yok,yok,yok,kademe_4,normal,bilinmiyor,bilinmiyor,100_125_m2,4_oda,alcak_1_3_kat,1_banyo,yok,yok,yok,dusuk,yok,yok,yok,3_4_Milyon_TL_Arasi
Aksaray,Merkez,Satilik,11_15_arasi,1,Kombi_Dogalgaz,bilinmiyor,yok,var,var,var,yok,yok,var,var,var,yok,var,var,yok,yok,yok,yok,yok,yok,yok,yok,yok,yok,yok,yok,yok,var,yok,yok,yok,yok,kademe_4,iyi,normal,bilinmiyor,150_200_m2,4_oda,orta_4_7_kat,2_banyo,dusuk,dusuk,yok,dusuk,dusuk,yuksek,yok,4_5_Milyon_TL_Arasi
Elazig,Merkez,Satilik,11_15_arasi,1,Kombi,bilinmiyor,yok,var,var,var,yok,yok,yok,var,var,yok,yok,yok,yok,yok,yok,yok,yok,yok,yok,yok,yok,yok,yok,yok,yok,yok,yok,yok,yok,yok,kademe_4,normal,normal,bilinmiyor,200_300_m2,5_oda,orta_4_7_kat,2_banyo,yok,yok,yok,yok,yok,yok,yok,3_4_Milyon_TL_Arasi
Kastamonu,Merkez,Satilik,11_15_arasi,Giris,Merkezi,bilinmiyor,yok,yok,yok,var,var,var,yok,yok,yok,yok,var,yok,yok,yok,yok,yok,yok,yok,yok,yok,yok,yok,var,yok,yok,yok,yok,yok,yok,yok,kademe_4,normal,normal,bilinmiyor,50_75_m2,2_oda,orta_4_7_kat,1_banyo,yok,yok,dusuk,orta,orta,orta,yok,1_5_2_Milyon_TL_Arasi
Amasya,Merkez,Satilik,21_25_arasi,1,Kombi,bilinmiyor,yok,var,yok,var,yok,yok,yok,var,yok,yok,var,yok,yok,var,yok,yok,yok,yok,yok,yok,yok,yok,yok,yok,yok,yok,yok,yok,yok,yok,kademe_4,iyi,bilinmiyor,bilinmiyor,125_150_m2,3_oda,orta_4_7_kat,1_banyo,yok,yok,yok,dusuk,orta,yuksek,yok,2_3_Milyon_TL_Arasi
Aksaray,Merkez,Satilik,6_10_arasi,4,Kombi,bilinmiyor,yok,var,var,yok,yok,yok,yok,var,yok,yok,yok,yok,yok,yok,yok,yok,yok,yok,yok,yok,yok,yok,yok,yok,yok,yok,yok,yok,yok,yok,kademe_4,bilinmiyor,iyi,normal,150_200_m2,4_oda,orta_4_7_kat,1_banyo,yok,yok,yok,dusuk,yok,yok,yok,4_5_Milyon_TL_Arasi
Afyonkarahisar,Merkez,Satilik,26_30_arasi,3,Kombi,bilinmiyor,yok,var,var,yok,yok,var,yok,var,var,yok,yok,yok,yok,yok,yok,yok,yok,yok,yok,yok,yok,yok,yok,yok,yok,yok,yok,yok,yok,yok,kademe_4,kotu,normal,kotu,125_150_m2,4_oda,orta_4_7_kat,1_banyo,yok,yok,dusuk,dusuk,orta,yok,yok,2_3_Milyon_TL_Arasi
Afyonkarahisar,Merkez,Satilik,31_ve_uzeri,1,Kombi_Dogalgaz,bilinmiyor,yok,yok,yok,yok,yok,yok,yok,yok,yok,yok,yok,yok,yok,yok,yok,yok,yok,yok,yok,yok,yok,yok,yok,yok,yok,yok,yok,yok,yok,yok,kademe_4,iyi,normal,bilinmiyor,100_125_m2,3_oda,orta_4_7_kat,1_banyo,yok,yok,yok,dusuk,yok,yok,yok,2_3_Milyon_TL_Arasi
Sivas,Merkez,Satilik,1_5_arasi,3,Kombi,bilinmiyor,yok,var,var,yok,yok,yok,var,var,yok,yok,var,yok,yok,var,yok,yok,yok,yok,yok,yok,yok,yok,yok,yok,yok,var,yok,yok,yok,yok,kademe_4,normal,bilinmiyor,bilinmiyor,150_200_m2,4_oda,orta_4_7_kat,2_banyo,dusuk,dusuk,dusuk,yok,orta,yuksek,yok,5_7_Bucuk_Milyon_TL_Arasi
Afyonkarahisar,Bolvadin,Satilik,21_25_arasi,Bahce,isitma_yok,bilinmiyor,yok,var,yok,var,yok,var,var,var,var,yok,yok,yok,yok,yok,yok,yok,yok,yok,yok,yok,yok,yok,yok,yok,yok,yok,yok,yok,yok,var,kademe_4,bilinmiyor,kotu,bilinmiyor,300_m2_ve_ustu,6_oda,bilinmiyor,2_banyo,yok,yok,yok,dusuk,orta,yok,yok,4_5_Milyon_TL_Arasi
Artvin,Merkez,Satilik,1_5_arasi,8,Kombi_Dogalgaz,bilinmiyor,yok,yok,var,var,var,yok,var,yok,yok,yok,yok,yok,yok,yok,yok,yok,yok,yok,yok,yok,yok,yok,yok,yok,yok,yok,yok,yok,yok,yok,kademe_4,normal,kotu,bilinmiyor,75_100_m2,3_oda,yuksek_8_15_kat,1_banyo,yok,yok,yok,dusuk,yok,yok,yok,4_5_Milyon_TL_Arasi
Aksaray,Merkez,Satilik,1_5_arasi,3,Kombi_Dogalgaz,bilinmiyor,yok,var,yok,yok,yok,yok,yok,var,yok,yok,yok,yok,yok,yok,yok,yok,yok,yok,yok,yok,yok,yok,yok,yok,yok,yok,yok,yok,yok,yok,kademe_4,iyi,bilinmiyor,bilinmiyor,150_200_m2,4_oda,orta_4_7_kat,2_banyo,yok,yok,yok,dusuk,yok,yok,yok,5_7_Bucuk_Milyon_TL_Arasi
Kastamonu,Tosya,Satilik,31_ve_uzeri,Ara_Kat,Kombi_Dogalgaz,bilinmiyor,yok,yok,yok,yok,yok,yok,var,var,yok,yok,yok,yok,yok,yok,yok,yok,yok,yok,yok,yok,yok,yok,yok,yok,yok,yok,yok,yok,yok,yok,kademe_4,kotu,kotu,bilinmiyor,150_200_m2,3_oda,orta_4_7_kat,1_banyo,yok,yok,yok,dusuk,yok,yok,yok,2_3_Milyon_TL_Arasi
Aksaray,Merkez,Satilik,6_10_arasi,2,Yerden_Isitma,bilinmiyor,yok,var,var,var,yok,yok,var,var,yok,yok,yok,yok,yok,yok,yok,yok,yok,yok,yok,yok,yok,yok,yok,yok,yok,yok,yok,yok,yok,yok,kademe_4,normal,kotu,kotu,100_125_m2,3_oda,orta_4_7_kat,1_banyo,yok,yok,yok,dusuk,yok,yok,yok,3_4_Milyon_TL_Arasi
Aksaray,Merkez,Satilik,16_20_arasi,4,Kombi,bilinmiyor,yok,var,yok,var,yok,yok,yok,yok,yok,yok,yok,yok,yok,yok,yok,yok,yok,yok,yok,yok,yok,yok,yok,yok,yok,yok,yok,yok,yok,yok,kademe_4,normal,normal,iyi,150_200_m2,4_oda,orta_4_7_kat,1_banyo,yok,yok,yok,dusuk,yok,yok,yok,2_3_Milyon_TL_Arasi
Aksaray,Gulagac,Satilik,21_25_arasi,4,Kombi_Dogalgaz,bilinmiyor,yok,var,var,yok,yok,yok,var,var,yok,yok,yok,yok,yok,yok,yok,yok,yok,yok,yok,yok,yok,yok,yok,yok,yok,yok,yok,yok,yok,yok,kademe_4,normal,kotu,bilinmiyor,125_150_m2,2_oda,orta_4_7_kat,1_banyo,yok,yok,yok,dusuk,yok,yok,yok,2_3_Milyon_TL_Arasi
Amasya,Merzifon,Satilik,0,3,Kombi,bilinmiyor,yok,var,yok,var,yok,yok,yok,var,yok,yok,yok,yok,yok,yok,yok,yok,yok,yok,yok,yok,yok,yok,yok,yok,yok,yok,yok,yok,yok,yok,kademe_4,normal,normal,normal,50_75_m2,2_oda,orta_4_7_kat,1_banyo,yok,yok,yok,dusuk,yok,dusuk,yok,2_3_Milyon_TL_Arasi
Amasya,Gumushacikoy,Satilik,11_15_arasi,1,bilinmiyor,bilinmiyor,yok,var,yok,yok,yok,yok,yok,yok,yok,yok,yok,yok,yok,yok,yok,yok,yok,yok,yok,yok,yok,yok,yok,yok,yok,yok,yok,yok,yok,yok,kademe_4,bilinmiyor,bilinmiyor,bilinmiyor,125_150_m2,4_oda,alcak_1_3_kat,2_banyo,yok,yok,yok,dusuk,yok,yok,yok,4_5_Milyon_TL_Arasi
Afyonkarahisar,Merkez,Satilik,16_20_arasi,6,Kombi_Dogalgaz,bilinmiyor,yok,var,var,var,yok,var,var,var,yok,yok,yok,yok,yok,yok,yok,yok,yok,yok,yok,yok,yok,yok,yok,yok,yok,var,yok,yok,yok,yok,kademe_4,normal,bilinmiyor,bilinmiyor,125_150_m2,4_oda,orta_4_7_kat,1_banyo,dusuk,yok,dusuk,orta,orta,yuksek,yok,4_5_Milyon_TL_Arasi
Afyonkarahisar,Merkez,Satilik,31_ve_uzeri,bilinmiyor,Soba,bilinmiyor,yok,yok,yok,yok,yok,yok,yok,yok,yok,yok,yok,yok,yok,yok,yok,yok,yok,yok,yok,yok,yok,yok,yok,yok,yok,yok,yok,yok,yok,yok,kademe_4,kotu,kotu,bilinmiyor,100_125_m2,4_oda,alcak_1_3_kat,1_banyo,yok,yok,yok,dusuk,yok,yok,yok,1_5_Milyon_TL_Alti
Aksaray,Merkez,Satilik,0,2,Kombi,bilinmiyor,yok,var,yok,var,yok,yok,yok,var,yok,yok,yok,yok,yok,yok,yok,yok,yok,yok,yok,yok,yok,yok,yok,yok,yok,yok,yok,yok,yok,yok,kademe_4,iyi,iyi,bilinmiyor,150_200_m2,4_oda,orta_4_7_kat,1_banyo,yok,yok,yok,yok,yok,yok,yok,5_7_Bucuk_Milyon_TL_Arasi
Amasya,Suluova,Satilik,1_5_arasi,Giris,Kombi,bilinmiyor,yok,var,yok,var,yok,var,var,var,yok,yok,var,var,yok,yok,yok,yok,yok,yok,yok,yok,yok,yok,yok,yok,yok,var,yok,yok,yok,yok,kademe_4,normal,bilinmiyor,normal,125_150_m2,4_oda,orta_4_7_kat,2_banyo,dusuk,yok,dusuk,dusuk,yuksek,yuksek,yok,3_4_Milyon_TL_Arasi
Amasya,Merkez,Satilik,6_10_arasi,2,Kombi_Dogalgaz,bilinmiyor,yok,yok,yok,yok,yok,yok,yok,yok,yok,yok,yok,yok,yok,yok,yok,yok,yok,yok,yok,yok,yok,yok,yok,yok,yok,yok,yok,yok,yok,yok,kademe_4,normal,normal,bilinmiyor,75_100_m2,3_oda,orta_4_7_kat,1_banyo,yok,yok,yok,dusuk,yok,yok,yok,2_3_Milyon_TL_Arasi
Kirsehir,Mucur,Satilik,6_10_arasi,4,Kombi,bilinmiyor,yok,var,var,var,yok,var,var,yok,yok,yok,var,yok,yok,var,yok,yok,yok,yok,yok,yok,yok,yok,yok,yok,yok,var,yok,yok,yok,yok,kademe_4,iyi,normal,bilinmiyor,125_150_m2,4_oda,orta_4_7_kat,1_banyo,yok,yok,dusuk,dusuk,yuksek,orta,yok,2_3_Milyon_TL_Arasi
Amasya,Merzifon,Satilik,0,3,Kombi_Dogalgaz,bilinmiyor,yok,yok,var,yok,yok,var,yok,var,var,yok,yok,yok,yok,yok,yok,yok,yok,yok,yok,yok,yok,yok,yok,yok,yok,yok,yok,yok,yok,yok,kademe_4,iyi,iyi,bilinmiyor,125_150_m2,4_oda,orta_4_7_kat,2_banyo,yok,yok,yok,dusuk,yok,yok,yok,4_5_Milyon_TL_Arasi
Amasya,Merkez,Satilik,31_ve_uzeri,bilinmiyor,Soba,bilinmiyor,yok,yok,yok,yok,yok,yok,yok,var,yok,yok,yok,yok,yok,yok,yok,yok,yok,yok,yok,yok,yok,yok,yok,yok,yok,yok,yok,yok,yok,yok,kademe_4,kotu,bilinmiyor,kotu,0_50_m2,3_oda,bilinmiyor,1_banyo,yok,yok,yok,dusuk,orta,yok,yok,1_5_Milyon_TL_Alti
Amasya,Merzifon,Satilik,21_25_arasi,2,Kombi_Dogalgaz,bilinmiyor,yok,var,var,var,yok,yok,var,var,var,yok,var,yok,yok,yok,yok,yok,yok,yok,yok,yok,yok,yok,yok,yok,yok,var,yok,yok,yok,yok,kademe_4,kotu,kotu,kotu,125_150_m2,4_oda,orta_4_7_kat,1_banyo,dusuk,yok,yok,dusuk,dusuk,yuksek,yok,2_3_Milyon_TL_Arasi
Amasya,Suluova,Satilik,11_15_arasi,Bahce,Soba,bilinmiyor,yok,var,yok,yok,yok,yok,yok,var,yok,yok,yok,yok,yok,yok,yok,yok,yok,yok,yok,yok,yok,yok,yok,yok,yok,yok,yok,yok,yok,yok,kademe_4,bilinmiyor,bilinmiyor,bilinmiyor,300_m2_ve_ustu,4_oda,alcak_1_3_kat,1_banyo,yok,yok,yok,dusuk,yok,yok,yok,4_5_Milyon_TL_Arasi
Amasya,Merzifon,Satilik,0,2,Kombi_Dogalgaz,bilinmiyor,yok,var,var,var,yok,yok,yok,var,var,yok,yok,yok,yok,yok,yok,yok,yok,yok,yok,yok,yok,yok,yok,yok,yok,yok,yok,yok,yok,yok,kademe_4,bilinmiyor,iyi,bilinmiyor,50_75_m2,2_oda,orta_4_7_kat,1_banyo,yok,yok,yok,dusuk,yok,yok,yok,1_5_2_Milyon_TL_Arasi
Amasya,Merzifon,Satilik,0,1,Kombi,bilinmiyor,yok,var,yok,yok,yok,yok,var,var,yok,yok,var,yok,yok,yok,yok,yok,yok,yok,yok,yok,yok,yok,yok,yok,yok,var,yok,yok,yok,yok,kademe_4,kotu,bilinmiyor,kotu,125_150_m2,3_oda,orta_4_7_kat,1_banyo,yok,dusuk,yok,dusuk,orta,yuksek,yok,3_4_Milyon_TL_Arasi
Amasya,Merzifon,Satilik,0,3,Kombi_Dogalgaz,bilinmiyor,yok,var,var,var,yok,var,var,yok,var,yok,yok,yok,yok,var,yok,yok,yok,yok,yok,var,yok,yok,yok,yok,yok,yok,yok,yok,yok,yok,kademe_4,iyi,bilinmiyor,normal,125_150_m2,4_oda,orta_4_7_kat,2_banyo,dusuk,yok,dusuk,dusuk,yok,yuksek,yok,5_7_Bucuk_Milyon_TL_Arasi
Artvin,Merkez,Satilik,16_20_arasi,Zemin,Kombi_Dogalgaz,bilinmiyor,yok,var,yok,yok,var,yok,var,yok,yok,yok,yok,yok,yok,yok,yok,yok,yok,yok,yok,yok,yok,yok,yok,yok,yok,yok,yok,yok,yok,yok,kademe_4,iyi,normal,bilinmiyor,125_150_m2,4_oda,orta_4_7_kat,1_banyo,yok,yok,yok,dusuk,yok,yok,yok,5_7_Bucuk_Milyon_TL_Arasi
Artvin,Murgul,Satilik,21_25_arasi,1,bilinmiyor,bilinmiyor,yok,yok,var,yok,yok,yok,yok,yok,yok,yok,yok,yok,yok,yok,yok,yok,yok,yok,yok,yok,yok,yok,yok,yok,yok,yok,yok,yok,yok,yok,kademe_4,kotu,bilinmiyor,bilinmiyor,100_125_m2,4_oda,alcak_1_3_kat,1_banyo,yok,yok,yok,dusuk,yok,yok,yok,2_3_Milyon_TL_Arasi
Elazig,Merkez,Satilik,31_ve_uzeri,Ara_Kat,Kombi_Dogalgaz,bilinmiyor,yok,var,yok,yok,yok,yok,var,var,var,yok,var,yok,yok,yok,yok,yok,yok,yok,yok,yok,yok,yok,yok,yok,yok,yok,yok,yok,yok,yok,kademe_4,kotu,kotu,kotu,150_200_m2,4_oda,orta_4_7_kat,1_banyo,yok,yok,yok,dusuk,yok,yok,yok,1_5_Milyon_TL_Alti
Elazig,Merkez,Satilik,26_30_arasi,4,Kombi,bilinmiyor,yok,var,yok,var,yok,var,yok,var,yok,yok,var,yok,yok,yok,yok,yok,yok,yok,yok,yok,yok,yok,yok,yok,yok,var,yok,yok,yok,yok,kademe_4,kotu,normal,bilinmiyor,125_150_m2,4_oda,orta_4_7_kat,1_banyo,yok,yok,yok,dusuk,orta,dusuk,yok,1_5_2_Milyon_TL_Arasi
Elazig,Merkez,Satilik,0,1,Kombi_Dogalgaz,bilinmiyor,yok,var,var,var,yok,yok,var,var,var,yok,var,yok,yok,yok,yok,yok,yok,yok,yok,yok,yok,yok,var,yok,yok,yok,yok,yok,yok,yok,kademe_4,iyi,iyi,kotu,200_300_m2,5_oda,orta_4_7_kat,2_banyo,dusuk,dusuk,yok,dusuk,yok,yuksek,yok,5_7_Bucuk_Milyon_TL_Arasi
Aksaray,Merkez,Satilik,0,Yuksek_Giris,Kombi_Dogalgaz,bilinmiyor,yok,var,var,yok,yok,var,yok,var,yok,yok,var,yok,yok,yok,yok,yok,yok,yok,yok,yok,yok,yok,yok,yok,yok,yok,yok,yok,yok,yok,kademe_4,normal,bilinmiyor,bilinmiyor,75_100_m2,3_oda,orta_4_7_kat,1_banyo,yok,yok,yok,dusuk,orta,yuksek,yok,3_4_Milyon_TL_Arasi
Aksaray,Merkez,Satilik,0,Yuksek_Giris,Yerden_Isitma,bilinmiyor,yok,var,var,var,var,yok,var,var,yok,yok,yok,yok,yok,yok,yok,yok,yok,yok,yok,yok,yok,yok,yok,yok,yok,yok,yok,yok,yok,yok,kademe_4,normal,normal,bilinmiyor,50_75_m2,2_oda,orta_4_7_kat,1_banyo,yok,yok,yok,dusuk,yok,yok,yok,1_5_2_Milyon_TL_Arasi
Amasya,Merzifon,Satilik,26_30_arasi,Ara_Kat,Kombi_Dogalgaz,bilinmiyor,yok,var,yok,var,yok,var,var,var,yok,yok,yok,yok,yok,yok,yok,yok,yok,yok,yok,yok,yok,yok,yok,yok,yok,var,yok,yok,yok,yok,kademe_4,kotu,bilinmiyor,bilinmiyor,150_200_m2,4_oda,orta_4_7_kat,1_banyo,yok,yok,yok,dusuk,dusuk,orta,yok,2_3_Milyon_TL_Arasi
Elazig,Merkez,Satilik,6_10_arasi,1,bilinmiyor,bilinmiyor,yok,yok,var,yok,yok,yok,yok,yok,yok,yok,yok,yok,yok,yok,yok,yok,yok,yok,yok,yok,yok,yok,yok,yok,yok,yok,yok,yok,yok,yok,kademe_4,bilinmiyor,bilinmiyor,bilinmiyor,75_100_m2,3_oda,alcak_1_3_kat,1_banyo,yok,yok,yok,dusuk,yok,yok,yok,3_4_Milyon_TL_Arasi
Afyonkarahisar,Merkez,Satilik,6_10_arasi,Yuksek_Giris,Kombi,bilinmiyor,yok,yok,yok,var,var,yok,yok,yok,yok,yok,yok,yok,yok,yok,yok,yok,yok,yok,yok,yok,yok,yok,yok,yok,yok,yok,yok,yok,yok,yok,kademe_4,iyi,iyi,iyi,50_75_m2,2_oda,orta_4_7_kat,1_banyo,yok,yok,yok,dusuk,dusuk,yok,yok,1_5_Milyon_TL_Alti
Elazig,Merkez,Satilik,1_5_arasi,8,Kombi,bilinmiyor,yok,var,var,var,yok,yok,var,var,yok,yok,var,yok,yok,yok,yok,yok,yok,yok,yok,yok,yok,yok,yok,yok,yok,var,yok,yok,yok,yok,kademe_4,normal,bilinmiyor,normal,100_125_m2,4_oda,yuksek_8_15_kat,2_banyo,dusuk,yok,dusuk,dusuk,yuksek,yuksek,yok,3_4_Milyon_TL_Arasi
Aksaray,Merkez,Satilik,21_25_arasi,1,Kombi_Dogalgaz,bilinmiyor,yok,yok,yok,yok,yok,yok,yok,yok,var,yok,yok,yok,yok,yok,yok,yok,yok,yok,yok,yok,yok,yok,yok,yok,yok,yok,yok,yok,yok,yok,kademe_4,normal,bilinmiyor,bilinmiyor,100_125_m2,3_oda,alcak_1_3_kat,1_banyo,yok,yok,yok,yok,yok,yok,yok,1_5_2_Milyon_TL_Arasi
Amasya,Merzifon,Satilik,6_10_arasi,1,Kombi_Dogalgaz,bilinmiyor,yok,yok,var,yok,yok,yok,var,var,var,yok,yok,yok,yok,yok,yok,yok,yok,yok,yok,yok,yok,yok,yok,yok,yok,yok,yok,yok,yok,yok,kademe_4,kotu,normal,bilinmiyor,150_200_m2,4_oda,orta_4_7_kat,1_banyo,yok,yok,yok,dusuk,yok,yok,yok,4_5_Milyon_TL_Arasi
Amasya,Merzifon,Satilik,1_5_arasi,1,Kombi_Dogalgaz,bilinmiyor,yok,yok,yok,yok,yok,yok,yok,yok,var,yok,yok,yok,yok,yok,yok,yok,yok,yok,yok,yok,yok,yok,yok,yok,yok,yok,yok,yok,yok,yok,kademe_4,normal,kotu,normal,100_125_m2,3_oda,orta_4_7_kat,1_banyo,yok,yok,yok,dusuk,yok,yok,yok,2_3_Milyon_TL_Arasi
Sivas,Divrigi,Satilik,11_15_arasi,Bahce,Kombi,bilinmiyor,yok,var,yok,var,var,yok,yok,yok,yok,yok,yok,yok,yok,yok,yok,yok,yok,yok,yok,yok,yok,yok,var,yok,yok,var,yok,yok,yok,yok,kademe_4,iyi,bilinmiyor,bilinmiyor,300_m2_ve_ustu,5_oda,bilinmiyor,1_banyo,yok,yok,yok,dusuk,yok,yok,yok,5_7_Bucuk_Milyon_TL_Arasi
Afyonkarahisar,Merkez,Satilik,0,2,Yerden_Isitma,bilinmiyor,yok,var,var,var,yok,yok,yok,yok,yok,yok,var,yok,yok,yok,yok,yok,yok,yok,yok,yok,yok,yok,yok,yok,yok,yok,yok,yok,yok,yok,kademe_4,iyi,iyi,bilinmiyor,50_75_m2,3_oda,orta_4_7_kat,1_banyo,dusuk,yok,yok,dusuk,yok,orta,yok,4_5_Milyon_TL_Arasi
Aksaray,Merkez,Satilik,0,Bahce,isitma_yok,bilinmiyor,yok,yok,yok,var,yok,yok,yok,yok,yok,yok,yok,yok,yok,yok,yok,yok,yok,yok,yok,yok,yok,yok,yok,yok,yok,yok,yok,yok,yok,yok,kademe_4,normal,bilinmiyor,bilinmiyor,200_300_m2,5_oda,alcak_1_3_kat,2_banyo,yok,yok,yok,dusuk,yok,yok,yok,5_7_Bucuk_Milyon_TL_Arasi
Amasya,Merzifon,Satilik,6_10_arasi,4,Merkezi,bilinmiyor,yok,yok,var,yok,yok,yok,yok,yok,yok,yok,yok,yok,yok,var,yok,yok,yok,yok,yok,yok,yok,yok,yok,yok,yok,yok,yok,yok,yok,yok,kademe_4,normal,kotu,bilinmiyor,75_100_m2,3_oda,orta_4_7_kat,1_banyo,dusuk,yok,yok,dusuk,yok,orta,yok,2_3_Milyon_TL_Arasi
Amasya,Merkez,Satilik,11_15_arasi,5,Kombi_Dogalgaz,bilinmiyor,yok,var,var,yok,yok,var,var,var,yok,yok,var,var,yok,yok,yok,yok,yok,yok,yok,yok,yok,yok,var,yok,yok,var,yok,yok,var,yok,kademe_4,kotu,normal,bilinmiyor,200_300_m2,6_oda,orta_4_7_kat,3_banyo_ve_ustu,dusuk,dusuk,yok,dusuk,orta,yuksek,yok,4_5_Milyon_TL_Arasi
Elazig,Merkez,Satilik,6_10_arasi,Zemin,Kombi_Dogalgaz,bilinmiyor,yok,yok,yok,yok,yok,yok,yok,yok,yok,yok,yok,yok,yok,yok,yok,yok,yok,yok,yok,yok,yok,yok,yok,yok,yok,yok,yok,yok,yok,yok,kademe_4,iyi,normal,normal,100_125_m2,7_oda_ve_ustu,orta_4_7_kat,3_banyo_ve_ustu,yok,yok,yok,dusuk,yok,yok,yok,2_3_Milyon_TL_Arasi
Kirsehir,Merkez,Satilik,0,3,Kombi,bilinmiyor,yok,var,yok,yok,yok,yok,yok,yok,yok,yok,yok,yok,yok,yok,yok,yok,yok,yok,yok,yok,yok,yok,yok,yok,yok,yok,yok,yok,yok,yok,kademe_4,iyi,normal,bilinmiyor,125_150_m2,4_oda,orta_4_7_kat,1_banyo,yok,yok,yok,dusuk,yok,yok,yok,4_5_Milyon_TL_Arasi
Sivas,Merkez,Satilik,31_ve_uzeri,2,Kombi,bilinmiyor,yok,var,var,var,yok,yok,var,var,yok,yok,yok,yok,yok,yok,yok,yok,yok,yok,yok,yok,yok,yok,var,yok,yok,var,yok,yok,yok,yok,kademe_4,normal,kotu,kotu,150_200_m2,4_oda,orta_4_7_kat,1_banyo,yok,yok,yok,dusuk,dusuk,yok,yok,3_4_Milyon_TL_Arasi
Aksaray,Merkez,Satilik,0,5,Kombi,bilinmiyor,yok,var,var,var,var,var,yok,var,yok,yok,var,var,yok,var,var,yok,yok,yok,yok,yok,yok,yok,var,yok,yok,var,yok,yok,yok,yok,kademe_4,normal,iyi,iyi,50_75_m2,2_oda,orta_4_7_kat,1_banyo,dusuk,orta,dusuk,dusuk,orta,yuksek,yok,2_3_Milyon_TL_Arasi
Aksaray,Merkez,Satilik,1_5_arasi,4,Kombi,bilinmiyor,yok,var,var,yok,var,yok,var,var,yok,yok,yok,yok,yok,yok,yok,yok,yok,yok,yok,yok,yok,yok,yok,yok,yok,yok,yok,yok,yok,yok,kademe_4,normal,normal,normal,50_75_m2,2_oda,orta_4_7_kat,1_banyo,yok,yok,yok,dusuk,yok,dusuk,yok,1_5_2_Milyon_TL_Arasi
Afyonkarahisar,Sandikli,Satilik,1_5_arasi,4,Jeotermal,bilinmiyor,yok,var,yok,yok,yok,yok,var,yok,var,yok,yok,yok,yok,yok,yok,yok,yok,yok,yok,yok,yok,yok,yok,yok,yok,yok,yok,yok,yok,yok,kademe_4,normal,bilinmiyor,kotu,125_150_m2,4_oda,orta_4_7_kat,1_banyo,yok,yok,yok,dusuk,yok,yok,yok,4_5_Milyon_TL_Arasi
Kastamonu,Merkez,Satilik,0,9,Merkezi,bilinmiyor,yok,var,var,var,yok,yok,yok,var,yok,yok,var,var,yok,yok,yok,yok,yok,yok,yok,yok,yok,yok,var,yok,yok,var,yok,yok,yok,yok,kademe_4,iyi,iyi,bilinmiyor,100_125_m2,3_oda,yuksek_8_15_kat,2_banyo,dusuk,yok,yok,dusuk,orta,orta,yok,4_5_Milyon_TL_Arasi
Aksaray,Merkez,Satilik,16_20_arasi,4,Kombi,bilinmiyor,yok,yok,yok,yok,yok,yok,yok,yok,yok,yok,yok,yok,yok,yok,yok,yok,yok,yok,yok,yok,yok,yok,yok,yok,yok,yok,yok,yok,yok,yok,kademe_4,iyi,bilinmiyor,bilinmiyor,150_200_m2,4_oda,orta_4_7_kat,1_banyo,yok,yok,yok,yok,yok,yok,yok,2_3_Milyon_TL_Arasi
Amasya,Merkez,Satilik,6_10_arasi,Bahce,Yerden_Isitma,bilinmiyor,yok,yok,yok,yok,var,yok,yok,yok,yok,yok,yok,yok,yok,yok,yok,yok,yok,yok,yok,yok,yok,yok,yok,yok,yok,yok,yok,yok,yok,yok,kademe_4,normal,iyi,iyi,50_75_m2,2_oda,orta_4_7_kat,1_banyo,yok,yok,yok,dusuk,yok,yok,yok,1_5_2_Milyon_TL_Arasi
Afyonkarahisar,Merkez,Satilik,16_20_arasi,Bahce,Kombi,bilinmiyor,yok,yok,yok,var,var,var,var,var,var,yok,var,var,yok,var,yok,yok,yok,yok,yok,yok,yok,yok,var,yok,yok,var,yok,yok,yok,yok,kademe_4,bilinmiyor,iyi,normal,300_m2_ve_ustu,6_oda,alcak_1_3_kat,3_banyo_ve_ustu,yok,dusuk,yok,dusuk,yok,yuksek,yok,7_Bucuk_10_Milyon_TL_Arasi
Kirsehir,Merkez,Satilik,6_10_arasi,Kot_3,Kombi_Dogalgaz,bilinmiyor,yok,var,var,var,yok,var,yok,var,yok,yok,var,yok,yok,yok,yok,yok,yok,yok,yok,yok,yok,yok,yok,yok,yok,yok,yok,yok,yok,yok,kademe_4,kotu,iyi,iyi,125_150_m2,4_oda,orta_4_7_kat,1_banyo,yok,yok,yok,dusuk,yok,orta,yok,3_4_Milyon_TL_Arasi
Amasya,Merkez,Satilik,26_30_arasi,En_Ust_Kat,Kombi_Dogalgaz,bilinmiyor,yok,yok,var,yok,yok,yok,yok,yok,yok,yok,yok,yok,yok,yok,yok,yok,yok,yok,yok,yok,yok,yok,yok,yok,yok,yok,yok,yok,yok,yok,kademe_4,normal,normal,bilinmiyor,200_300_m2,5_oda,orta_4_7_kat,2_banyo,yok,yok,yok,yok,yok,yok,yok,5_7_Bucuk_Milyon_TL_Arasi
Amasya,Merzifon,Satilik,0,1,Yerden_Isitma,bilinmiyor,yok,var,var,var,yok,yok,var,var,yok,yok,var,yok,yok,yok,yok,yok,yok,yok,yok,yok,yok,yok,yok,yok,yok,yok,yok,yok,yok,yok,kademe_4,iyi,normal,bilinmiyor,100_125_m2,3_oda,orta_4_7_kat,1_banyo,dusuk,yok,yok,dusuk,dusuk,yuksek,yok,3_4_Milyon_TL_Arasi
Aksaray,Merkez,Satilik,11_15_arasi,5,Kombi,bilinmiyor,yok,var,var,var,var,var,yok,yok,var,yok,var,yok,yok,var,yok,yok,yok,yok,var,yok,yok,yok,var,yok,yok,var,yok,yok,yok,yok,kademe_4,normal,normal,kotu,150_200_m2,4_oda,orta_4_7_kat,1_banyo,dusuk,yok,dusuk,orta,yuksek,yuksek,yok,4_5_Milyon_TL_Arasi
Kastamonu,Merkez,Satilik,31_ve_uzeri,1,bilinmiyor,bilinmiyor,yok,var,var,yok,yok,yok,yok,yok,yok,yok,yok,yok,yok,yok,yok,yok,yok,yok,yok,yok,yok,yok,yok,yok,yok,yok,yok,yok,yok,yok,kademe_4,bilinmiyor,bilinmiyor,bilinmiyor,125_150_m2,4_oda,alcak_1_3_kat,1_banyo,yok,yok,yok,dusuk,yok,yok,yok,4_5_Milyon_TL_Arasi
Kastamonu,Merkez,Satilik,0,5,Kombi,bilinmiyor,yok,var,var,var,yok,var,yok,var,yok,yok,var,yok,yok,var,yok,yok,yok,yok,yok,yok,yok,yok,var,yok,yok,var,yok,yok,yok,yok,kademe_4,bilinmiyor,bilinmiyor,bilinmiyor,75_100_m2,3_oda,orta_4_7_kat,1_banyo,dusuk,yok,dusuk,orta,dusuk,yuksek,yok,2_3_Milyon_TL_Arasi
Afyonkarahisar,Merkez,Satilik,0,9,Kombi_Dogalgaz,bilinmiyor,yok,var,var,var,yok,var,var,yok,yok,yok,yok,yok,yok,yok,yok,yok,yok,yok,yok,yok,yok,yok,yok,yok,yok,yok,yok,yok,yok,yok,kademe_4,normal,iyi,bilinmiyor,150_200_m2,3_oda,yuksek_8_15_kat,2_banyo,yok,yok,yok,dusuk,yok,yok,yok,4_5_Milyon_TL_Arasi
Afyonkarahisar,Merkez,Satilik,0,3,Kombi_Dogalgaz,bilinmiyor,yok,var,var,var,yok,yok,yok,yok,yok,yok,var,var,yok,var,yok,yok,yok,yok,yok,yok,yok,yok,var,yok,yok,var,yok,yok,yok,yok,kademe_4,iyi,normal,iyi,125_150_m2,4_oda,orta_4_7_kat,2_banyo,dusuk,dusuk,yok,dusuk,yok,yuksek,yok,5_7_Bucuk_Milyon_TL_Arasi
Kastamonu,Merkez,Satilik,6_10_arasi,5,Merkezi,bilinmiyor,yok,var,var,var,yok,yok,yok,yok,yok,yok,yok,yok,yok,yok,yok,yok,yok,yok,yok,yok,yok,yok,yok,yok,yok,yok,yok,yok,yok,yok,kademe_4,iyi,iyi,iyi,125_150_m2,4_oda,orta_4_7_kat,1_banyo,yok,yok,yok,dusuk,yok,yok,yok,4_5_Milyon_TL_Arasi
Elazig,Karakocan,Satilik,0,3,Kombi,bilinmiyor,yok,var,var,var,yok,var,yok,var,yok,yok,yok,yok,yok,var,yok,yok,yok,yok,yok,yok,yok,yok,var,yok,yok,yok,yok,yok,yok,yok,kademe_4,iyi,bilinmiyor,bilinmiyor,150_200_m2,4_oda,orta_4_7_kat,1_banyo,yok,yok,dusuk,dusuk,orta,yuksek,yok,4_5_Milyon_TL_Arasi
Elazig,Sivrice,Satilik,11_15_arasi,bilinmiyor,Gunes_Enerjisi,bilinmiyor,yok,var,yok,yok,yok,var,var,var,var,yok,var,yok,yok,var,yok,yok,yok,yok,yok,yok,var,yok,var,var,yok,var,yok,yok,yok,yok,kademe_4,kotu,bilinmiyor,normal,75_100_m2,3_oda,alcak_1_3_kat,1_banyo,yok,dusuk,yok,orta,orta,yuksek,yok,1_5_Milyon_TL_Alti
Amasya,Merkez,Satilik,21_25_arasi,4,Kombi_Dogalgaz,bilinmiyor,yok,var,yok,var,yok,var,var,var,var,yok,yok,yok,yok,yok,yok,yok,yok,yok,yok,yok,yok,yok,yok,yok,yok,yok,yok,yok,yok,yok,kademe_4,normal,bilinmiyor,bilinmiyor,125_150_m2,4_oda,orta_4_7_kat,1_banyo,yok,yok,yok,dusuk,yok,yok,yok,2_3_Milyon_TL_Arasi
Afyonkarahisar,Merkez,Satilik,0,2,Kombi,bilinmiyor,yok,var,yok,var,yok,var,var,var,var,yok,var,var,yok,var,yok,yok,yok,yok,yok,yok,yok,yok,yok,yok,yok,var,yok,yok,yok,yok,kademe_4,bilinmiyor,bilinmiyor,iyi,100_125_m2,3_oda,orta_4_7_kat,2_banyo,yok,dusuk,dusuk,orta,orta,yuksek,yok,4_5_Milyon_TL_Arasi
Amasya,Merkez,Satilik,21_25_arasi,Giris,Kombi,bilinmiyor,yok,var,yok,var,yok,yok,yok,yok,yok,yok,yok,yok,yok,yok,yok,yok,yok,yok,yok,yok,yok,yok,yok,yok,yok,var,yok,yok,yok,yok,kademe_4,iyi,normal,bilinmiyor,75_100_m2,2_oda,orta_4_7_kat,1_banyo,yok,yok,yok,dusuk,orta,yok,yok,1_5_Milyon_TL_Alti
Amasya,Merkez,Satilik,31_ve_uzeri,1,Kombi_Dogalgaz,bilinmiyor,yok,var,yok,yok,yok,yok,yok,yok,yok,yok,yok,yok,yok,yok,yok,yok,yok,yok,yok,yok,yok,yok,yok,yok,yok,yok,yok,yok,yok,yok,kademe_4,normal,normal,bilinmiyor,150_200_m2,4_oda,alcak_1_3_kat,1_banyo,yok,yok,yok,dusuk,yok,yok,yok,3_4_Milyon_TL_Arasi
Afyonkarahisar,Merkez,Satilik,6_10_arasi,5,Kombi,bilinmiyor,yok,yok,var,yok,yok,yok,yok,yok,yok,yok,yok,yok,yok,yok,yok,yok,yok,yok,yok,yok,yok,yok,yok,yok,yok,yok,yok,yok,yok,yok,kademe_4,kotu,bilinmiyor,kotu,75_100_m2,3_oda,orta_4_7_kat,1_banyo,yok,yok,yok,dusuk,dusuk,yok,yok,1_5_Milyon_TL_Alti
Aksaray,Merkez,Satilik,6_10_arasi,3,Kombi,bilinmiyor,yok,var,var,yok,yok,yok,var,yok,var,yok,yok,yok,yok,yok,yok,yok,yok,yok,yok,yok,yok,yok,yok,yok,yok,var,yok,yok,yok,yok,kademe_4,normal,normal,bilinmiyor,150_200_m2,4_oda,orta_4_7_kat,1_banyo,dusuk,yok,yok,dusuk,dusuk,dusuk,yok,4_5_Milyon_TL_Arasi
Aksaray,Merkez,Satilik,0,2,Yerden_Isitma,bilinmiyor,yok,var,yok,yok,yok,yok,var,var,yok,yok,yok,yok,yok,yok,yok,yok,yok,yok,yok,yok,yok,yok,yok,yok,yok,yok,yok,yok,yok,yok,kademe_4,normal,bilinmiyor,iyi,150_200_m2,4_oda,orta_4_7_kat,2_banyo,yok,yok,yok,dusuk,dusuk,yok,yok,5_7_Bucuk_Milyon_TL_Arasi
Elazig,Merkez,Satilik,6_10_arasi,1,bilinmiyor,bilinmiyor,yok,yok,var,yok,yok,yok,yok,yok,yok,yok,yok,yok,yok,yok,yok,yok,yok,yok,yok,yok,yok,yok,yok,yok,yok,yok,yok,yok,yok,yok,kademe_4,bilinmiyor,bilinmiyor,bilinmiyor,75_100_m2,3_oda,alcak_1_3_kat,1_banyo,yok,yok,yok,dusuk,yok,yok,yok,3_4_Milyon_TL_Arasi
Artvin,Merkez,Satilik,6_10_arasi,4,Kombi_Dogalgaz,bilinmiyor,yok,var,var,var,var,yok,var,var,yok,yok,yok,yok,yok,yok,yok,yok,yok,yok,yok,yok,yok,yok,yok,yok,yok,yok,yok,yok,yok,yok,kademe_4,iyi,kotu,bilinmiyor,100_125_m2,3_oda,yuksek_8_15_kat,1_banyo,yok,yok,yok,yok,yok,yok,yok,3_4_Milyon_TL_Arasi
Elazig,Merkez,Satilik,31_ve_uzeri,Ara_Kat,Kombi_Dogalgaz,bilinmiyor,yok,yok,yok,yok,yok,yok,var,yok,var,yok,yok,yok,yok,yok,yok,yok,yok,yok,yok,yok,yok,yok,yok,yok,yok,yok,yok,yok,yok,yok,kademe_4,kotu,normal,kotu,150_200_m2,4_oda,orta_4_7_kat,1_banyo,yok,yok,yok,dusuk,yok,yok,yok,1_5_2_Milyon_TL_Arasi
Afyonkarahisar,Evciler,Satilik,31_ve_uzeri,bilinmiyor,Kombi,bilinmiyor,yok,yok,yok,yok,yok,yok,yok,yok,yok,yok,yok,yok,yok,yok,yok,yok,yok,yok,yok,yok,yok,yok,yok,yok,yok,yok,yok,yok,yok,yok,kademe_4,kotu,bilinmiyor,bilinmiyor,125_150_m2,4_oda,alcak_1_3_kat,1_banyo,yok,yok,yok,dusuk,yok,yok,yok,5_7_Bucuk_Milyon_TL_Arasi
Elazig,Merkez,Satilik,0,Zemin,Merkezi,bilinmiyor,yok,yok,yok,yok,yok,var,yok,yok,yok,yok,yok,yok,yok,yok,yok,yok,yok,yok,yok,yok,yok,yok,yok,yok,yok,var,yok,yok,yok,yok,kademe_4,kotu,normal,bilinmiyor,100_125_m2,4_oda,orta_4_7_kat,1_banyo,yok,yok,yok,orta,orta,yok,yok,2_3_Milyon_TL_Arasi
Amasya,Merzifon,Satilik,11_15_arasi,5,Kombi_Dogalgaz,bilinmiyor,yok,var,yok,yok,yok,var,var,var,yok,yok,yok,yok,yok,yok,yok,yok,yok,yok,yok,yok,yok,yok,yok,yok,yok,yok,yok,yok,yok,yok,kademe_4,normal,kotu,bilinmiyor,100_125_m2,3_oda,orta_4_7_kat,1_banyo,yok,yok,yok,dusuk,yok,yok,yok,2_3_Milyon_TL_Arasi
Afyonkarahisar,Merkez,Satilik,1_5_arasi,4,Yerden_Isitma,bilinmiyor,yok,var,yok,var,var,yok,var,yok,yok,yok,var,yok,yok,yok,yok,yok,yok,yok,yok,yok,yok,yok,yok,yok,yok,var,yok,yok,yok,yok,kademe_4,bilinmiyor,kotu,bilinmiyor,50_75_m2,2_oda,orta_4_7_kat,1_banyo,yok,yok,yok,dusuk,yok,orta,yok,3_4_Milyon_TL_Arasi
Amasya,Merkez,Satilik,0,Ara_Kat,Kombi_Dogalgaz,bilinmiyor,yok,var,yok,yok,yok,yok,yok,yok,yok,yok,yok,yok,yok,yok,yok,yok,yok,yok,yok,yok,yok,yok,yok,yok,yok,yok,yok,yok,yok,yok,kademe_4,iyi,bilinmiyor,bilinmiyor,125_150_m2,4_oda,yuksek_8_15_kat,2_banyo,yok,yok,yok,dusuk,yok,yok,yok,3_4_Milyon_TL_Arasi
Amasya,Merkez,Satilik,16_20_arasi,bilinmiyor,Kat_Kaloriferi,bilinmiyor,yok,yok,yok,var,yok,yok,var,var,var,yok,var,yok,yok,yok,yok,yok,yok,yok,yok,yok,yok,yok,yok,yok,yok,var,var,yok,yok,yok,kademe_4,kotu,kotu,kotu,125_150_m2,4_oda,alcak_1_3_kat,1_banyo,yok,yok,yok,dusuk,yok,orta,yok,2_3_Milyon_TL_Arasi
Aksaray,Merkez,Satilik,0,3,Kombi,bilinmiyor,yok,var,yok,yok,var,var,yok,yok,var,yok,var,var,yok,var,var,yok,yok,yok,yok,yok,yok,yok,var,yok,yok,var,yok,yok,yok,yok,kademe_4,kotu,normal,bilinmiyor,50_75_m2,2_oda,orta_4_7_kat,1_banyo,dusuk,orta,orta,orta,yuksek,yuksek,yok,1_5_Milyon_TL_Alti
Afyonkarahisar,Merkez,Satilik,26_30_arasi,Bahce,Soba,bilinmiyor,yok,var,yok,yok,yok,yok,yok,yok,yok,yok,yok,yok,yok,yok,yok,yok,yok,yok,yok,yok,yok,yok,yok,yok,yok,yok,yok,yok,yok,yok,kademe_4,kotu,bilinmiyor,bilinmiyor,75_100_m2,3_oda,bilinmiyor,1_banyo,yok,yok,yok,dusuk,yok,yok,yok,3_4_Milyon_TL_Arasi
Amasya,Merzifon,Satilik,0,Ara_Kat,Yerden_Isitma,bilinmiyor,yok,var,var,yok,yok,yok,yok,var,var,yok,var,yok,yok,var,yok,yok,yok,yok,yok,yok,yok,yok,yok,yok,yok,yok,yok,yok,yok,yok,kademe_4,normal,bilinmiyor,iyi,50_75_m2,2_oda,orta_4_7_kat,1_banyo,dusuk,yok,yok,dusuk,yok,yuksek,yok,2_3_Milyon_TL_Arasi
Kirsehir,Merkez,Satilik,11_15_arasi,5,Kombi_Dogalgaz,bilinmiyor,yok,var,yok,yok,yok,yok,yok,yok,yok,yok,yok,yok,yok,yok,yok,yok,yok,yok,yok,yok,yok,yok,yok,yok,yok,yok,yok,yok,var,yok,kademe_4,iyi,bilinmiyor,normal,200_300_m2,7_oda_ve_ustu,orta_4_7_kat,2_banyo,yok,yok,yok,dusuk,yok,yok,yok,3_4_Milyon_TL_Arasi
Amasya,Merkez,Satilik,1_5_arasi,3,Kombi,bilinmiyor,yok,var,var,var,yok,yok,yok,yok,yok,yok,var,var,yok,var,yok,yok,yok,yok,yok,yok,yok,yok,yok,yok,yok,var,yok,yok,yok,yok,kademe_4,normal,bilinmiyor,normal,150_200_m2,4_oda,orta_4_7_kat,2_banyo,yok,yok,yok,dusuk,orta,orta,yok,3_4_Milyon_TL_Arasi
Aksaray,Merkez,Satilik,1_5_arasi,Yuksek_Giris,Kombi,bilinmiyor,yok,var,yok,yok,var,var,yok,var,yok,yok,yok,yok,yok,yok,yok,yok,yok,yok,yok,yok,yok,yok,yok,yok,yok,var,yok,yok,yok,yok,kademe_4,normal,normal,iyi,0_50_m2,2_oda,orta_4_7_kat,1_banyo,dusuk,yok,yok,dusuk,dusuk,dusuk,yok,1_5_Milyon_TL_Alti
Amasya,Merzifon,Satilik,6_10_arasi,4,Kombi_Dogalgaz,bilinmiyor,yok,var,yok,yok,yok,yok,var,yok,yok,yok,var,yok,yok,var,yok,yok,yok,yok,yok,yok,yok,yok,yok,yok,yok,yok,yok,yok,yok,yok,kademe_4,kotu,normal,normal,50_75_m2,2_oda,orta_4_7_kat,1_banyo,yok,yok,yok,dusuk,yok,orta,yok,2_3_Milyon_TL_Arasi
Amasya,Merzifon,Satilik,21_25_arasi,bilinmiyor,Kombi_Dogalgaz,bilinmiyor,yok,yok,yok,yok,var,var,var,yok,yok,yok,yok,yok,yok,yok,yok,yok,yok,yok,yok,yok,yok,yok,yok,yok,yok,yok,yok,yok,yok,yok,kademe_4,bilinmiyor,bilinmiyor,bilinmiyor,50_75_m2,3_oda,alcak_1_3_kat,1_banyo,yok,yok,yok,dusuk,yok,yok,yok,2_3_Milyon_TL_Arasi
Aksaray,Merkez,Satilik,0,6,Kombi,bilinmiyor,yok,var,var,var,var,var,yok,var,yok,yok,var,yok,yok,yok,yok,yok,yok,yok,yok,yok,yok,yok,var,yok,yok,var,yok,yok,yok,yok,kademe_4,normal,bilinmiyor,bilinmiyor,0_50_m2,2_oda,orta_4_7_kat,1_banyo,dusuk,yok,dusuk,dusuk,yuksek,yuksek,yok,1_5_2_Milyon_TL_Arasi
Amasya,Suluova,Satilik,6_10_arasi,Yuksek_Giris,Kombi,bilinmiyor,yok,var,yok,var,yok,yok,var,yok,yok,yok,yok,yok,yok,yok,yok,yok,yok,yok,yok,yok,yok,yok,yok,yok,yok,yok,yok,yok,yok,yok,kademe_4,normal,bilinmiyor,iyi,75_100_m2,3_oda,orta_4_7_kat,1_banyo,yok,yok,yok,dusuk,yok,yok,yok,2_3_Milyon_TL_Arasi
Aksaray,Merkez,Satilik,6_10_arasi,1,Kombi_Dogalgaz,bilinmiyor,yok,var,var,var,yok,var,yok,var,yok,yok,var,yok,yok,var,yok,yok,yok,yok,yok,yok,yok,yok,yok,yok,yok,var,yok,yok,yok,yok,kademe_4,normal,normal,normal,125_150_m2,2_oda,orta_4_7_kat,1_banyo,dusuk,yok,yok,dusuk,yok,yuksek,yok,5_7_Bucuk_Milyon_TL_Arasi
Elazig,Kovancilar,Satilik,0,5,Kombi,bilinmiyor,yok,var,var,var,yok,yok,yok,yok,yok,yok,var,var,yok,yok,yok,yok,yok,yok,yok,yok,yok,yok,var,yok,yok,yok,yok,yok,yok,yok,kademe_4,normal,normal,bilinmiyor,125_150_m2,4_oda,orta_4_7_kat,2_banyo,yok,yok,dusuk,dusuk,yok,orta,yok,3_4_Milyon_TL_Arasi
Artvin,Arhavi,Satilik,26_30_arasi,1,bilinmiyor,bilinmiyor,yok,var,yok,yok,yok,yok,yok,yok,yok,yok,yok,yok,yok,yok,yok,yok,yok,yok,yok,yok,yok,yok,yok,yok,yok,yok,yok,yok,yok,yok,kademe_4,bilinmiyor,bilinmiyor,bilinmiyor,125_150_m2,4_oda,alcak_1_3_kat,1_banyo,yok,yok,yok,dusuk,yok,yok,yok,2_3_Milyon_TL_Arasi
Aksaray,Merkez,Satilik,0,Kot_2,Yerden_Isitma,bilinmiyor,yok,var,var,yok,var,yok,var,yok,yok,yok,var,yok,yok,yok,yok,yok,yok,yok,yok,yok,yok,yok,yok,yok,yok,yok,yok,yok,yok,yok,kademe_4,kotu,bilinmiyor,bilinmiyor,0_50_m2,2_oda,orta_4_7_kat,1_banyo,dusuk,yok,yok,orta,dusuk,orta,yok,1_5_2_Milyon_TL_Arasi
Elazig,Merkez,Satilik,0,5,Kombi,bilinmiyor,yok,var,var,var,yok,var,yok,yok,var,yok,var,var,yok,var,yok,yok,yok,yok,yok,yok,yok,yok,var,yok,yok,var,yok,yok,yok,yok,kademe_4,iyi,iyi,bilinmiyor,150_200_m2,4_oda,orta_4_7_kat,2_banyo,dusuk,dusuk,dusuk,orta,orta,yuksek,yok,5_7_Bucuk_Milyon_TL_Arasi
Sivas,Merkez,Satilik,6_10_arasi,5,Kombi,bilinmiyor,yok,var,var,var,yok,var,yok,var,yok,yok,yok,yok,yok,yok,yok,yok,yok,yok,yok,yok,yok,yok,yok,yok,yok,yok,yok,yok,yok,yok,kademe_4,normal,normal,bilinmiyor,150_200_m2,4_oda,yuksek_8_15_kat,1_banyo,yok,yok,yok,dusuk,yok,dusuk,yok,4_5_Milyon_TL_Arasi
Amasya,Merkez,Satilik,26_30_arasi,4,Kombi_Dogalgaz,bilinmiyor,yok,var,yok,var,yok,var,var,yok,yok,yok,var,yok,yok,var,yok,yok,yok,yok,yok,yok,yok,yok,var,yok,yok,yok,yok,yok,yok,yok,kademe_4,normal,kotu,bilinmiyor,100_125_m2,3_oda,orta_4_7_kat,1_banyo,yok,yok,yok,dusuk,yok,yuksek,yok,2_3_Milyon_TL_Arasi
Amasya,Suluova,Satilik,21_25_arasi,bilinmiyor,belirtilmemis_dogalgaz,bilinmiyor,yok,yok,yok,yok,yok,yok,yok,yok,yok,yok,yok,yok,yok,yok,yok,yok,yok,yok,yok,yok,yok,yok,yok,yok,yok,yok,yok,yok,yok,yok,kademe_4,bilinmiyor,bilinmiyor,kotu,100_125_m2,6_oda,alcak_1_3_kat,2_banyo,yok,yok,yok,dusuk,yok,yok,yok,5_7_Bucuk_Milyon_TL_Arasi
Aksaray,Merkez,Satilik,1_5_arasi,2,Yerden_Isitma,bilinmiyor,yok,var,var,var,yok,yok,yok,yok,yok,yok,yok,yok,yok,yok,yok,yok,yok,yok,yok,yok,yok,yok,yok,yok,yok,yok,yok,yok,yok,yok,kademe_4,normal,normal,bilinmiyor,150_200_m2,4_oda,orta_4_7_kat,1_banyo,yok,yok,yok,yok,yok,yok,yok,5_7_Bucuk_Milyon_TL_Arasi
Afyonkarahisar,Emirdag,Satilik,1_5_arasi,Yuksek_Giris,Kombi,bilinmiyor,yok,var,yok,var,yok,yok,yok,yok,yok,yok,var,var,yok,var,yok,yok,yok,yok,yok,yok,yok,yok,yok,yok,yok,yok,yok,yok,yok,yok,kademe_4,iyi,normal,normal,150_200_m2,4_oda,orta_4_7_kat,2_banyo,yok,yok,yok,dusuk,dusuk,yuksek,yok,3_4_Milyon_TL_Arasi
Amasya,Merzifon,Satilik,6_10_arasi,3,Kombi,bilinmiyor,yok,var,yok,yok,yok,var,yok,yok,var,yok,yok,yok,yok,yok,yok,yok,yok,yok,yok,yok,yok,yok,yok,yok,yok,yok,yok,yok,yok,yok,kademe_4,bilinmiyor,bilinmiyor,bilinmiyor,75_100_m2,3_oda,orta_4_7_kat,1_banyo,yok,yok,yok,dusuk,yok,yok,yok,2_3_Milyon_TL_Arasi
Artvin,Merkez,Satilik,16_20_arasi,7,Kombi_Dogalgaz,bilinmiyor,yok,yok,var,var,var,yok,yok,yok,yok,yok,yok,yok,yok,yok,yok,yok,yok,yok,yok,yok,yok,yok,yok,yok,yok,yok,yok,yok,yok,yok,kademe_4,normal,kotu,bilinmiyor,200_300_m2,7_oda_ve_ustu,yuksek_8_15_kat,1_banyo,yok,yok,yok,dusuk,yok,yok,yok,5_7_Bucuk_Milyon_TL_Arasi
Amasya,Merzifon,Satilik,1_5_arasi,5,Kombi_Dogalgaz,bilinmiyor,yok,yok,var,yok,yok,yok,yok,var,var,yok,yok,yok,yok,yok,yok,yok,yok,yok,yok,yok,yok,yok,yok,yok,yok,yok,yok,yok,yok,yok,kademe_4,iyi,normal,iyi,75_100_m2,2_oda,orta_4_7_kat,1_banyo,yok,yok,yok,dusuk,yok,yok,yok,2_3_Milyon_TL_Arasi
Amasya,Merzifon,Satilik,6_10_arasi,3,Kombi,bilinmiyor,yok,var,yok,yok,yok,var,var,yok,yok,yok,yok,yok,yok,yok,yok,yok,yok,yok,yok,yok,yok,yok,yok,yok,yok,yok,yok,yok,yok,yok,kademe_4,iyi,normal,bilinmiyor,150_200_m2,4_oda,orta_4_7_kat,2_banyo,yok,yok,yok,dusuk,yok,yok,yok,5_7_Bucuk_Milyon_TL_Arasi
Kastamonu,Merkez,Satilik,0,13,Merkezi,bilinmiyor,yok,var,yok,var,yok,yok,yok,var,yok,yok,yok,yok,yok,var,yok,yok,yok,yok,yok,yok,yok,yok,yok,yok,yok,var,yok,yok,yok,yok,kademe_4,bilinmiyor,normal,iyi,50_75_m2,2_oda,cok_yuksek_16_ustu_kat,1_banyo,dusuk,yok,dusuk,dusuk,orta,dusuk,yok,2_3_Milyon_TL_Arasi
Amasya,Merzifon,Satilik,1_5_arasi,Ara_Kat,Kombi_Dogalgaz,bilinmiyor,yok,var,yok,yok,yok,yok,yok,yok,yok,yok,yok,yok,yok,yok,yok,yok,yok,yok,yok,yok,yok,yok,yok,yok,yok,yok,yok,yok,yok,yok,kademe_4,iyi,bilinmiyor,bilinmiyor,125_150_m2,4_oda,orta_4_7_kat,2_banyo,yok,yok,yok,dusuk,yok,yok,yok,4_5_Milyon_TL_Arasi
Afyonkarahisar,Merkez,Satilik,16_20_arasi,Ara_Kat,Kombi_Dogalgaz,bilinmiyor,yok,var,yok,yok,yok,var,var,yok,yok,yok,yok,yok,yok,yok,yok,yok,yok,yok,yok,yok,yok,yok,yok,yok,yok,var,yok,yok,yok,yok,kademe_4,bilinmiyor,normal,iyi,125_150_m2,4_oda,orta_4_7_kat,1_banyo,yok,yok,yok,orta,orta,orta,yok,4_5_Milyon_TL_Arasi
Sivas,Merkez,Satilik,11_15_arasi,4,Kombi,bilinmiyor,yok,var,var,var,yok,var,yok,var,yok,yok,var,yok,yok,yok,yok,yok,yok,yok,yok,yok,yok,yok,yok,yok,yok,yok,yok,yok,yok,yok,kademe_4,iyi,normal,bilinmiyor,150_200_m2,4_oda,orta_4_7_kat,2_banyo,yok,yok,yok,yok,yok,dusuk,yok,3_4_Milyon_TL_Arasi
Amasya,Gumushacikoy,Satilik,31_ve_uzeri,bilinmiyor,Kombi_Dogalgaz,bilinmiyor,yok,yok,yok,yok,yok,yok,yok,var,yok,yok,yok,yok,yok,yok,yok,yok,yok,yok,yok,yok,yok,yok,yok,yok,yok,yok,yok,var,yok,yok,kademe_4,bilinmiyor,bilinmiyor,bilinmiyor,75_100_m2,5_oda,alcak_1_3_kat,1_banyo,yok,yok,yok,dusuk,yok,yok,yok,1_5_2_Milyon_TL_Arasi
Elazig,Merkez,Satilik,6_10_arasi,3,Kombi,bilinmiyor,yok,var,yok,var,yok,var,var,yok,yok,yok,var,var,yok,yok,yok,yok,yok,yok,var,yok,yok,yok,var,yok,yok,var,yok,yok,yok,yok,kademe_4,bilinmiyor,normal,iyi,150_200_m2,4_oda,orta_4_7_kat,2_banyo,yok,yok,yok,dusuk,yuksek,yok,yok,3_4_Milyon_TL_Arasi
Amasya,Merzifon,Satilik,21_25_arasi,1,Kombi,bilinmiyor,yok,var,yok,var,yok,yok,yok,var,yok,yok,var,yok,yok,var,yok,yok,yok,yok,yok,yok,yok,yok,yok,yok,yok,var,yok,yok,yok,yok,kademe_4,kotu,normal,bilinmiyor,150_200_m2,5_oda,orta_4_7_kat,1_banyo,yok,yok,yok,dusuk,yok,orta,yok,2_3_Milyon_TL_Arasi
Aksaray,Merkez,Satilik,0,3,Yerden_Isitma,bilinmiyor,yok,var,var,yok,yok,yok,yok,var,yok,yok,yok,yok,yok,yok,yok,yok,yok,yok,yok,yok,yok,yok,yok,yok,yok,var,yok,yok,yok,yok,kademe_4,bilinmiyor,bilinmiyor,bilinmiyor,75_100_m2,3_oda,orta_4_7_kat,1_banyo,yok,yok,dusuk,dusuk,yuksek,yok,yok,3_4_Milyon_TL_Arasi
Aksaray,Merkez,Satilik,1_5_arasi,1,Kombi_Dogalgaz,bilinmiyor,yok,var,yok,yok,var,yok,var,yok,yok,yok,yok,yok,yok,yok,yok,yok,yok,yok,yok,yok,yok,yok,yok,yok,yok,yok,yok,yok,yok,yok,kademe_4,normal,bilinmiyor,bilinmiyor,50_75_m2,2_oda,orta_4_7_kat,1_banyo,yok,yok,yok,dusuk,yok,yok,yok,1_5_2_Milyon_TL_Arasi
Aksaray,Merkez,Satilik,6_10_arasi,Yuksek_Giris,Kombi_Dogalgaz,bilinmiyor,yok,var,var,var,yok,var,yok,var,var,yok,var,var,yok,yok,yok,yok,yok,yok,yok,yok,yok,yok,yok,yok,yok,yok,yok,yok,yok,yok,kademe_4,iyi,normal,bilinmiyor,125_150_m2,3_oda,orta_4_7_kat,2_banyo,dusuk,yok,yok,dusuk,dusuk,yuksek,yok,3_4_Milyon_TL_Arasi
Aksaray,Merkez,Satilik,21_25_arasi,1,Yerden_Isitma,bilinmiyor,yok,var,var,var,yok,yok,yok,var,yok,yok,yok,yok,yok,yok,yok,yok,yok,yok,yok,yok,yok,yok,yok,yok,yok,yok,yok,yok,yok,yok,kademe_4,normal,kotu,bilinmiyor,150_200_m2,4_oda,orta_4_7_kat,1_banyo,yok,yok,yok,dusuk,yok,yok,yok,3_4_Milyon_TL_Arasi
Kastamonu,Merkez,Satilik,1_5_arasi,bilinmiyor,Soba,bilinmiyor,yok,yok,yok,yok,yok,yok,yok,yok,yok,yok,yok,yok,yok,yok,yok,yok,yok,yok,yok,yok,yok,yok,yok,yok,yok,yok,yok,yok,yok,yok,kademe_4,bilinmiyor,bilinmiyor,bilinmiyor,100_125_m2,4_oda,alcak_1_3_kat,1_banyo,yok,yok,yok,dusuk,yok,yok,yok,5_7_Bucuk_Milyon_TL_Arasi
Amasya,Merzifon,Satilik,1_5_arasi,4,Kombi,bilinmiyor,yok,var,yok,yok,yok,yok,yok,var,var,yok,yok,yok,yok,yok,yok,yok,yok,yok,yok,yok,yok,yok,yok,yok,yok,yok,yok,yok,yok,yok,kademe_4,iyi,iyi,bilinmiyor,200_300_m2,5_oda,orta_4_7_kat,3_banyo_ve_ustu,yok,yok,yok,dusuk,yok,yok,yok,7_Bucuk_10_Milyon_TL_Arasi
Aksaray,Merkez,Satilik,0,4,Kombi,bilinmiyor,yok,var,var,yok,yok,var,var,var,var,yok,yok,yok,yok,yok,yok,yok,yok,yok,yok,yok,yok,yok,yok,yok,yok,var,yok,yok,yok,yok,kademe_4,iyi,iyi,bilinmiyor,50_75_m2,2_oda,orta_4_7_kat,1_banyo,dusuk,yok,yok,dusuk,orta,dusuk,yok,3_4_Milyon_TL_Arasi
Sivas,Merkez,Satilik,31_ve_uzeri,bilinmiyor,Kombi_Dogalgaz,bilinmiyor,yok,yok,yok,yok,yok,yok,yok,yok,yok,yok,yok,yok,yok,yok,yok,yok,yok,yok,yok,yok,yok,yok,yok,yok,yok,yok,yok,yok,yok,yok,kademe_4,bilinmiyor,bilinmiyor,bilinmiyor,100_125_m2,4_oda,alcak_1_3_kat,1_banyo,yok,yok,yok,dusuk,yok,yok,yok,7_Bucuk_10_Milyon_TL_Arasi
Amasya,Gumushacikoy,Satilik,0,En_Ust_Kat,Kombi_Dogalgaz,bilinmiyor,yok,var,var,var,yok,var,yok,var,var,yok,var,var,yok,yok,yok,yok,yok,yok,yok,yok,yok,yok,var,yok,yok,var,var,yok,var,yok,kademe_4,iyi,bilinmiyor,bilinmiyor,200_300_m2,7_oda_ve_ustu,orta_4_7_kat,2_banyo,dusuk,dusuk,yok,orta,dusuk,yuksek,yok,4_5_Milyon_TL_Arasi
Aksaray,Merkez,Satilik,1_5_arasi,bilinmiyor,Kombi_Dogalgaz,bilinmiyor,yok,yok,yok,yok,yok,yok,yok,var,yok,yok,yok,yok,yok,yok,yok,yok,yok,yok,yok,yok,yok,yok,yok,yok,yok,yok,yok,yok,yok,yok,kademe_4,iyi,normal,bilinmiyor,300_m2_ve_ustu,6_oda,alcak_1_3_kat,3_banyo_ve_ustu,yok,yok,yok,yok,yok,yok,yok,10_Milyon_TL_Ustu
Amasya,Merzifon,Satilik,6_10_arasi,5,Kombi_Dogalgaz,bilinmiyor,yok,var,var,yok,yok,var,yok,yok,var,yok,var,var,yok,yok,var,yok,yok,yok,yok,yok,yok,yok,yok,yok,yok,yok,yok,yok,yok,yok,kademe_4,normal,iyi,bilinmiyor,200_300_m2,5_oda,orta_4_7_kat,3_banyo_ve_ustu,dusuk,dusuk,yok,dusuk,yok,yuksek,yok,7_Bucuk_10_Milyon_TL_Arasi
Aksaray,Merkez,Satilik,0,4,Kombi_Dogalgaz,bilinmiyor,yok,var,var,var,yok,var,var,var,yok,yok,yok,yok,yok,yok,yok,yok,yok,yok,yok,yok,yok,yok,yok,yok,yok,yok,yok,yok,yok,yok,kademe_4,bilinmiyor,normal,normal,100_125_m2,3_oda,yuksek_8_15_kat,1_banyo,yok,yok,yok,dusuk,yok,yok,yok,4_5_Milyon_TL_Arasi
Aksaray,Merkez,Satilik,1_5_arasi,bilinmiyor,Somine,bilinmiyor,yok,var,yok,yok,yok,var,var,var,var,yok,var,yok,yok,yok,var,yok,yok,yok,yok,yok,yok,yok,yok,yok,yok,yok,var,yok,yok,yok,kademe_4,bilinmiyor,normal,bilinmiyor,200_300_m2,5_oda,alcak_1_3_kat,2_banyo,yok,dusuk,yok,orta,dusuk,yuksek,yok,7_Bucuk_10_Milyon_TL_Arasi
Amasya,Merkez,Satilik,1_5_arasi,Bahce,Yerden_Isitma,bilinmiyor,yok,var,yok,var,yok,yok,yok,var,var,yok,yok,yok,yok,yok,yok,yok,yok,yok,yok,yok,yok,yok,var,yok,yok,var,var,yok,yok,yok,kademe_4,bilinmiyor,normal,bilinmiyor,300_m2_ve_ustu,4_oda,alcak_1_3_kat,1_banyo,yok,yok,yok,dusuk,yok,orta,yok,5_7_Bucuk_Milyon_TL_Arasi
Kastamonu,Merkez,Satilik,11_15_arasi,2,Merkezi,bilinmiyor,yok,yok,var,var,yok,yok,yok,yok,yok,yok,yok,yok,yok,yok,yok,yok,yok,yok,yok,yok,yok,yok,yok,yok,yok,yok,yok,yok,yok,yok,kademe_4,bilinmiyor,bilinmiyor,kotu,125_150_m2,4_oda,yuksek_8_15_kat,1_banyo,yok,yok,yok,dusuk,yok,yok,yok,4_5_Milyon_TL_Arasi
Sivas,Merkez,Satilik,16_20_arasi,3,Kombi,bilinmiyor,yok,var,var,var,yok,yok,yok,var,yok,yok,yok,yok,yok,yok,yok,yok,yok,yok,yok,yok,yok,yok,yok,yok,yok,yok,yok,yok,yok,yok,kademe_4,normal,bilinmiyor,bilinmiyor,200_300_m2,6_oda,orta_4_7_kat,2_banyo,yok,yok,yok,yok,yok,dusuk,yok,4_5_Milyon_TL_Arasi
Kastamonu,Merkez,Satilik,6_10_arasi,Giris,Kombi_Dogalgaz,bilinmiyor,yok,var,var,var,yok,yok,var,yok,var,yok,yok,yok,yok,yok,yok,yok,yok,yok,yok,yok,yok,yok,var,yok,yok,var,yok,yok,yok,yok,kademe_4,iyi,normal,bilinmiyor,75_100_m2,3_oda,orta_4_7_kat,1_banyo,yok,yok,yok,dusuk,orta,yok,yok,2_3_Milyon_TL_Arasi
Kastamonu,Merkez,Satilik,1_5_arasi,19,Merkezi,bilinmiyor,yok,var,yok,yok,yok,yok,yok,var,yok,yok,var,var,yok,yok,yok,yok,yok,yok,yok,yok,yok,yok,var,yok,yok,var,yok,yok,yok,yok,kademe_4,iyi,bilinmiyor,kotu,150_200_m2,4_oda,cok_yuksek_16_ustu_kat,2_banyo,dusuk,yok,yok,dusuk,dusuk,yuksek,yok,10_Milyon_TL_Ustu
Amasya,Merkez,Satilik,11_15_arasi,1,Kombi,bilinmiyor,yok,var,var,var,yok,yok,var,var,yok,yok,yok,yok,yok,yok,yok,yok,yok,yok,yok,yok,yok,yok,yok,yok,yok,yok,yok,yok,yok,yok,kademe_4,iyi,normal,iyi,125_150_m2,4_oda,orta_4_7_kat,1_banyo,yok,yok,yok,yok,yok,yok,yok,3_4_Milyon_TL_Arasi
Afyonkarahisar,Merkez,Satilik,26_30_arasi,bilinmiyor,Soba,bilinmiyor,yok,yok,yok,yok,yok,yok,var,yok,yok,yok,yok,yok,yok,yok,yok,yok,yok,yok,yok,yok,yok,yok,yok,yok,yok,yok,yok,yok,yok,yok,kademe_4,bilinmiyor,bilinmiyor,bilinmiyor,125_150_m2,3_oda,orta_4_7_kat,1_banyo,yok,yok,yok,dusuk,dusuk,yok,yok,1_5_Milyon_TL_Alti
Aksaray,Merkez,Satilik,0,3,Kombi,bilinmiyor,yok,var,var,yok,yok,var,yok,var,yok,yok,var,var,yok,var,yok,yok,yok,yok,yok,yok,yok,yok,var,yok,yok,var,yok,yok,yok,yok,kademe_4,kotu,bilinmiyor,kotu,150_200_m2,4_oda,yuksek_8_15_kat,2_banyo,dusuk,dusuk,dusuk,orta,yuksek,yuksek,yok,5_7_Bucuk_Milyon_TL_Arasi
Aksaray,Merkez,Satilik,26_30_arasi,Bahce,Soba,bilinmiyor,yok,var,yok,yok,yok,var,var,var,yok,yok,yok,yok,yok,yok,yok,yok,yok,yok,yok,yok,yok,yok,yok,yok,yok,var,var,yok,yok,yok,kademe_4,kotu,iyi,kotu,150_200_m2,4_oda,bilinmiyor,1_banyo,yok,yok,yok,dusuk,yuksek,dusuk,yok,5_7_Bucuk_Milyon_TL_Arasi
Afyonkarahisar,Merkez,Satilik,16_20_arasi,4,Jeotermal,bilinmiyor,yok,var,var,var,yok,var,var,var,yok,yok,var,yok,yok,var,yok,yok,yok,yok,yok,yok,yok,yok,var,yok,yok,var,yok,yok,yok,yok,kademe_4,normal,kotu,iyi,125_150_m2,4_oda,orta_4_7_kat,1_banyo,yok,dusuk,yok,yok,yok,yuksek,yok,3_4_Milyon_TL_Arasi
Kastamonu,Merkez,Satilik,26_30_arasi,Bahce,isitma_yok,bilinmiyor,yok,var,yok,var,yok,var,yok,var,yok,yok,yok,yok,yok,var,yok,yok,yok,yok,yok,yok,yok,yok,var,yok,yok,var,yok,yok,yok,var,kademe_4,bilinmiyor,bilinmiyor,bilinmiyor,300_m2_ve_ustu,6_oda,orta_4_7_kat,3_banyo_ve_ustu,yok,yok,dusuk,orta,yuksek,orta,yok,5_7_Bucuk_Milyon_TL_Arasi
Aksaray,Merkez,Satilik,0,bilinmiyor,Kombi_Dogalgaz,bilinmiyor,yok,var,yok,yok,yok,var,var,var,var,yok,yok,var,yok,yok,yok,yok,yok,yok,yok,yok,yok,yok,yok,yok,yok,yok,var,yok,yok,yok,kademe_4,bilinmiyor,bilinmiyor,bilinmiyor,200_300_m2,5_oda,alcak_1_3_kat,2_banyo,yok,yok,yok,dusuk,dusuk,dusuk,yok,5_7_Bucuk_Milyon_TL_Arasi
Afyonkarahisar,Merkez,Satilik,0,3,Jeotermal,bilinmiyor,yok,var,yok,yok,yok,var,var,var,var,yok,var,yok,yok,var,yok,yok,yok,yok,yok,yok,yok,yok,yok,yok,yok,var,yok,yok,yok,yok,kademe_4,iyi,iyi,bilinmiyor,50_75_m2,3_oda,orta_4_7_kat,1_banyo,yok,dusuk,dusuk,orta,orta,yuksek,yok,4_5_Milyon_TL_Arasi
Afyonkarahisar,Merkez,Satilik,21_25_arasi,1,bilinmiyor,bilinmiyor,yok,var,yok,yok,yok,yok,yok,yok,yok,yok,yok,yok,yok,yok,yok,yok,yok,yok,yok,yok,yok,yok,yok,yok,yok,yok,yok,yok,yok,yok,kademe_4,bilinmiyor,bilinmiyor,bilinmiyor,100_125_m2,4_oda,alcak_1_3_kat,2_banyo,yok,yok,yok,dusuk,yok,yok,yok,2_3_Milyon_TL_Arasi
Kastamonu,Merkez,Satilik,1_5_arasi,Bahce,Kat_Kaloriferi,bilinmiyor,yok,var,yok,var,var,yok,var,var,yok,yok,var,yok,yok,var,yok,yok,yok,yok,yok,yok,yok,yok,var,yok,yok,yok,var,yok,yok,yok,kademe_4,kotu,bilinmiyor,bilinmiyor,300_m2_ve_ustu,4_oda,bilinmiyor,1_banyo,dusuk,yok,yok,orta,orta,yuksek,yok,5_7_Bucuk_Milyon_TL_Arasi
Amasya,Merzifon,Satilik,0,4,Kombi_Dogalgaz,bilinmiyor,yok,var,var,var,yok,yok,yok,var,yok,yok,var,yok,yok,var,yok,yok,yok,yok,yok,yok,yok,yok,yok,yok,yok,var,yok,yok,yok,yok,kademe_4,normal,normal,bilinmiyor,75_100_m2,2_oda,orta_4_7_kat,1_banyo,dusuk,yok,yok,dusuk,yok,yuksek,yok,2_3_Milyon_TL_Arasi
Kastamonu,Cide,Satilik,1_5_arasi,4,Kombi,bilinmiyor,yok,var,yok,yok,yok,var,var,var,yok,yok,yok,var,yok,var,yok,yok,yok,yok,yok,yok,yok,var,var,yok,yok,var,yok,yok,yok,yok,kademe_4,normal,kotu,kotu,150_200_m2,5_oda,orta_4_7_kat,3_banyo_ve_ustu,yok,dusuk,yok,dusuk,yok,orta,yok,5_7_Bucuk_Milyon_TL_Arasi
Afyonkarahisar,Merkez,Satilik,11_15_arasi,Villa_Kati,Kat_Kaloriferi,bilinmiyor,yok,var,yok,yok,yok,yok,var,var,yok,yok,var,yok,yok,var,yok,yok,yok,yok,yok,yok,yok,yok,var,yok,yok,yok,yok,yok,yok,yok,kademe_4,normal,normal,bilinmiyor,125_150_m2,4_oda,alcak_1_3_kat,1_banyo,yok,yok,yok,orta,dusuk,orta,yok,5_7_Bucuk_Milyon_TL_Arasi
Kastamonu,Bozkurt,Satilik,16_20_arasi,2,Kombi,bilinmiyor,yok,var,var,var,yok,yok,var,var,var,yok,yok,yok,yok,yok,yok,yok,yok,yok,yok,yok,yok,yok,yok,yok,yok,yok,yok,yok,yok,yok,kademe_4,normal,normal,bilinmiyor,100_125_m2,3_oda,orta_4_7_kat,1_banyo,yok,yok,yok,dusuk,yok,orta,yok,3_4_Milyon_TL_Arasi
Afyonkarahisar,Merkez,Satilik,6_10_arasi,4,Kombi,bilinmiyor,yok,var,var,var,yok,yok,var,var,yok,yok,var,var,yok,var,yok,yok,yok,yok,yok,yok,yok,yok,var,yok,yok,var,yok,yok,yok,yok,kademe_4,bilinmiyor,normal,normal,150_200_m2,5_oda,orta_4_7_kat,2_banyo,dusuk,dusuk,yok,orta,orta,yuksek,yok,5_7_Bucuk_Milyon_TL_Arasi
Aksaray,Merkez,Satilik,0,2,Kombi,bilinmiyor,yok,var,var,yok,yok,var,var,var,var,yok,yok,yok,yok,yok,yok,yok,yok,yok,yok,yok,yok,yok,yok,yok,yok,yok,yok,yok,yok,yok,kademe_4,iyi,iyi,bilinmiyor,150_200_m2,4_oda,orta_4_7_kat,1_banyo,yok,yok,yok,dusuk,yok,yok,yok,4_5_Milyon_TL_Arasi
Elazig,Merkez,Satilik,11_15_arasi,4,Kombi_Dogalgaz,bilinmiyor,yok,var,var,yok,yok,var,yok,var,var,yok,yok,yok,yok,yok,yok,yok,yok,yok,yok,yok,yok,yok,yok,yok,yok,yok,yok,yok,yok,yok,kademe_4,normal,iyi,bilinmiyor,150_200_m2,4_oda,orta_4_7_kat,1_banyo,yok,yok,yok,dusuk,yok,dusuk,yok,3_4_Milyon_TL_Arasi
Aksaray,Merkez,Satilik,11_15_arasi,4,Kombi,bilinmiyor,yok,var,yok,yok,yok,var,yok,var,yok,yok,yok,yok,yok,yok,yok,yok,yok,yok,yok,yok,yok,yok,yok,yok,yok,yok,yok,yok,yok,yok,kademe_4,normal,normal,kotu,150_200_m2,4_oda,yuksek_8_15_kat,1_banyo,yok,yok,yok,dusuk,yok,yok,yok,4_5_Milyon_TL_Arasi
Amasya,Merzifon,Satilik,11_15_arasi,1,Kombi_Dogalgaz,bilinmiyor,yok,yok,var,yok,yok,yok,yok,var,var,yok,yok,yok,yok,yok,yok,yok,yok,yok,yok,yok,yok,yok,yok,yok,yok,yok,yok,yok,yok,yok,kademe_4,kotu,kotu,bilinmiyor,125_150_m2,3_oda,orta_4_7_kat,1_banyo,yok,yok,yok,dusuk,yok,yok,yok,2_3_Milyon_TL_Arasi
Kastamonu,Merkez,Satilik,0,5,Kombi,bilinmiyor,yok,var,var,var,yok,var,var,var,var,yok,var,var,yok,var,yok,yok,yok,yok,yok,yok,yok,yok,var,yok,yok,var,yok,yok,yok,yok,kademe_4,bilinmiyor,bilinmiyor,bilinmiyor,75_100_m2,3_oda,orta_4_7_kat,2_banyo,dusuk,yok,dusuk,orta,yuksek,yuksek,yok,4_5_Milyon_TL_Arasi
Afyonkarahisar,Merkez,Satilik,26_30_arasi,1,Kombi_Dogalgaz,bilinmiyor,yok,var,var,var,yok,var,yok,yok,yok,yok,var,yok,yok,var,yok,yok,yok,yok,yok,yok,yok,yok,yok,yok,yok,var,yok,yok,yok,yok,kademe_4,bilinmiyor,normal,kotu,100_125_m2,4_oda,orta_4_7_kat,1_banyo,yok,yok,yok,orta,orta,yuksek,yok,3_4_Milyon_TL_Arasi
Kastamonu,Merkez,Satilik,21_25_arasi,2,Kombi,bilinmiyor,yok,var,var,yok,yok,var,var,var,var,yok,yok,yok,yok,var,yok,yok,yok,yok,yok,yok,yok,yok,yok,yok,yok,var,yok,yok,yok,yok,kademe_4,bilinmiyor,kotu,bilinmiyor,125_150_m2,4_oda,alcak_1_3_kat,1_banyo,yok,yok,dusuk,orta,yuksek,dusuk,yok,3_4_Milyon_TL_Arasi
Kastamonu,Bozkurt,Satilik,16_20_arasi,4,Kombi,bilinmiyor,yok,var,yok,var,yok,var,var,var,yok,yok,var,yok,yok,var,yok,yok,yok,yok,yok,yok,yok,yok,var,yok,yok,var,yok,yok,yok,yok,kademe_4,normal,bilinmiyor,bilinmiyor,100_125_m2,3_oda,orta_4_7_kat,1_banyo,yok,yok,dusuk,dusuk,yuksek,yuksek,yok,2_3_Milyon_TL_Arasi
Amasya,Merzifon,Satilik,1_5_arasi,Giris,Kombi,bilinmiyor,yok,yok,yok,var,var,yok,yok,var,yok,yok,yok,yok,yok,yok,yok,yok,yok,yok,yok,yok,yok,yok,yok,yok,yok,yok,yok,yok,yok,yok,kademe_4,normal,normal,kotu,50_75_m2,2_oda,orta_4_7_kat,1_banyo,yok,yok,yok,dusuk,yok,yok,yok,1_5_2_Milyon_TL_Arasi
Amasya,Merzifon,Satilik,11_15_arasi,1,Kombi,bilinmiyor,yok,var,var,var,yok,var,yok,var,yok,yok,yok,yok,yok,yok,yok,yok,yok,yok,yok,yok,yok,yok,yok,yok,yok,yok,yok,yok,yok,yok,kademe_4,iyi,kotu,bilinmiyor,125_150_m2,4_oda,orta_4_7_kat,1_banyo,yok,yok,yok,dusuk,yok,yok,yok,3_4_Milyon_TL_Arasi
Aksaray,Merkez,Satilik,0,1,Yerden_Isitma,bilinmiyor,yok,var,yok,yok,yok,var,yok,var,yok,yok,yok,yok,yok,yok,yok,yok,yok,yok,yok,yok,yok,yok,var,yok,yok,var,yok,yok,yok,yok,kademe_4,normal,iyi,normal,50_75_m2,2_oda,orta_4_7_kat,1_banyo,yok,yok,dusuk,dusuk,orta,dusuk,yok,2_3_Milyon_TL_Arasi
Afyonkarahisar,Merkez,Satilik,1_5_arasi,1,Kombi_Dogalgaz,bilinmiyor,yok,yok,var,yok,yok,var,yok,var,yok,yok,yok,yok,yok,yok,yok,yok,yok,yok,yok,yok,yok,yok,yok,yok,yok,yok,yok,yok,yok,yok,kademe_4,kotu,normal,normal,50_75_m2,2_oda,orta_4_7_kat,1_banyo,yok,yok,yok,dusuk,dusuk,yok,yok,1_5_2_Milyon_TL_Arasi
Amasya,Merkez,Satilik,31_ve_uzeri,bilinmiyor,Soba,bilinmiyor,yok,yok,yok,yok,yok,var,var,var,yok,yok,yok,yok,yok,yok,yok,yok,yok,yok,yok,yok,yok,yok,yok,yok,yok,yok,yok,yok,yok,yok,kademe_4,bilinmiyor,bilinmiyor,bilinmiyor,150_200_m2,7_oda_ve_ustu,alcak_1_3_kat,2_banyo,yok,yok,yok,yok,yok,yok,yok,3_4_Milyon_TL_Arasi
Amasya,Merzifon,Satilik,1_5_arasi,Bahce,Soba,bilinmiyor,yok,var,var,var,yok,var,yok,var,yok,yok,yok,yok,yok,yok,yok,yok,yok,yok,yok,yok,yok,yok,var,var,yok,yok,yok,var,yok,yok,kademe_4,bilinmiyor,bilinmiyor,bilinmiyor,50_75_m2,2_oda,alcak_1_3_kat,1_banyo,yok,yok,yok,dusuk,yok,yok,yok,3_4_Milyon_TL_Arasi
Aksaray,Merkez,Satilik,21_25_arasi,2,Kombi_Dogalgaz,bilinmiyor,yok,var,var,var,yok,yok,var,var,yok,yok,var,yok,yok,var,yok,yok,yok,yok,yok,yok,yok,yok,var,yok,yok,var,yok,yok,yok,yok,kademe_4,bilinmiyor,iyi,bilinmiyor,150_200_m2,4_oda,yuksek_8_15_kat,1_banyo,orta,dusuk,dusuk,orta,orta,yuksek,yok,2_3_Milyon_TL_Arasi
Aksaray,Merkez,Satilik,26_30_arasi,Ara_Kat,Kombi_Dogalgaz,bilinmiyor,yok,var,var,var,var,var,yok,var,yok,yok,yok,yok,yok,yok,var,yok,yok,yok,yok,yok,yok,yok,yok,yok,yok,var,yok,yok,yok,yok,kademe_4,kotu,bilinmiyor,bilinmiyor,150_200_m2,4_oda,orta_4_7_kat,1_banyo,yok,yok,yok,dusuk,yok,dusuk,yok,2_3_Milyon_TL_Arasi
Amasya,Merkez,Satilik,0,1,Kombi_Dogalgaz,bilinmiyor,yok,var,var,var,yok,yok,yok,yok,yok,yok,var,yok,yok,var,yok,yok,yok,yok,yok,yok,yok,yok,yok,yok,yok,yok,yok,yok,yok,yok,kademe_4,normal,bilinmiyor,bilinmiyor,100_125_m2,3_oda,orta_4_7_kat,1_banyo,dusuk,yok,yok,dusuk,yok,yuksek,yok,4_5_Milyon_TL_Arasi
Amasya,Merzifon,Satilik,11_15_arasi,1,Kombi_Dogalgaz,bilinmiyor,yok,var,yok,yok,yok,yok,yok,yok,yok,yok,yok,yok,yok,yok,yok,yok,yok,yok,yok,yok,yok,yok,yok,yok,yok,yok,yok,yok,yok,yok,kademe_4,kotu,bilinmiyor,bilinmiyor,100_125_m2,3_oda,orta_4_7_kat,1_banyo,yok,yok,yok,dusuk,yok,yok,yok,2_3_Milyon_TL_Arasi
Amasya,Merzifon,Satilik,1_5_arasi,Ara_Kat,Kombi_Dogalgaz,bilinmiyor,yok,var,var,var,yok,var,yok,yok,var,yok,var,yok,yok,var,yok,yok,yok,yok,yok,yok,yok,yok,yok,yok,yok,var,yok,yok,yok,yok,kademe_4,iyi,normal,kotu,75_100_m2,3_oda,orta_4_7_kat,1_banyo,dusuk,yok,yok,dusuk,dusuk,yuksek,yok,2_3_Milyon_TL_Arasi
Kastamonu,Merkez,Satilik,1_5_arasi,Bahce,bilinmiyor,bilinmiyor,yok,var,yok,var,yok,var,yok,var,var,yok,yok,yok,yok,yok,var,yok,yok,yok,yok,yok,yok,yok,var,yok,yok,yok,yok,yok,yok,yok,kademe_4,kotu,kotu,bilinmiyor,150_200_m2,3_oda,bilinmiyor,1_banyo,yok,yok,yok,dusuk,yok,yok,yok,5_7_Bucuk_Milyon_TL_Arasi
Aksaray,Merkez,Satilik,11_15_arasi,3,Kombi,bilinmiyor,yok,var,var,var,yok,yok,yok,yok,yok,yok,yok,yok,yok,yok,yok,yok,yok,yok,yok,yok,yok,yok,yok,yok,yok,yok,yok,yok,yok,yok,kademe_4,normal,bilinmiyor,iyi,300_m2_ve_ustu,5_oda,orta_4_7_kat,2_banyo,yok,yok,yok,dusuk,yok,yok,yok,5_7_Bucuk_Milyon_TL_Arasi
Amasya,Merzifon,Satilik,6_10_arasi,2,Kombi_Dogalgaz,bilinmiyor,yok,var,var,var,yok,yok,yok,var,var,yok,var,var,yok,yok,yok,yok,yok,yok,yok,yok,yok,yok,yok,yok,yok,yok,yok,yok,yok,yok,kademe_4,iyi,kotu,bilinmiyor,150_200_m2,4_oda,orta_4_7_kat,2_banyo,dusuk,yok,yok,dusuk,yok,yuksek,yok,4_5_Milyon_TL_Arasi
Amasya,Merzifon,Satilik,1_5_arasi,2,Kombi_Dogalgaz,bilinmiyor,yok,var,var,var,yok,yok,yok,yok,var,yok,var,yok,yok,yok,yok,yok,yok,yok,yok,yok,yok,yok,yok,yok,yok,var,yok,yok,yok,yok,kademe_4,bilinmiyor,bilinmiyor,bilinmiyor,150_200_m2,4_oda,orta_4_7_kat,2_banyo,dusuk,yok,yok,orta,orta,yuksek,yok,5_7_Bucuk_Milyon_TL_Arasi
Kastamonu,Taskopru,Satilik,21_25_arasi,2,Kombi,bilinmiyor,yok,var,yok,var,yok,yok,var,var,yok,yok,var,yok,yok,var,yok,yok,yok,yok,yok,yok,yok,yok,var,yok,yok,var,yok,yok,yok,yok,kademe_4,normal,kotu,bilinmiyor,100_125_m2,3_oda,orta_4_7_kat,1_banyo,yok,yok,dusuk,orta,yuksek,yuksek,yok,2_3_Milyon_TL_Arasi
Amasya,Merkez,Satilik,0,4,Yerden_Isitma,bilinmiyor,yok,var,yok,var,yok,var,var,yok,yok,yok,var,yok,yok,yok,yok,yok,yok,yok,yok,yok,yok,yok,yok,yok,yok,var,yok,yok,yok,yok,kademe_4,bilinmiyor,bilinmiyor,bilinmiyor,50_75_m2,2_oda,orta_4_7_kat,1_banyo,yok,yok,yok,dusuk,orta,orta,yok,2_3_Milyon_TL_Arasi
Amasya,Merkez,Satilik,16_20_arasi,3,Kombi,bilinmiyor,yok,var,yok,var,yok,yok,yok,yok,yok,yok,var,yok,yok,var,yok,yok,yok,yok,yok,yok,yok,yok,yok,yok,yok,yok,yok,yok,yok,yok,kademe_4,normal,kotu,bilinmiyor,125_150_m2,4_oda,orta_4_7_kat,1_banyo,yok,yok,yok,dusuk,orta,yuksek,yok,2_3_Milyon_TL_Arasi
Amasya,Merkez,Satilik,6_10_arasi,5,Kombi,bilinmiyor,yok,var,yok,yok,yok,yok,yok,var,var,yok,var,yok,yok,yok,yok,yok,yok,yok,yok,yok,yok,yok,yok,yok,yok,var,yok,yok,yok,yok,kademe_4,normal,normal,bilinmiyor,125_150_m2,4_oda,orta_4_7_kat,2_banyo,yok,yok,dusuk,dusuk,orta,dusuk,yok,3_4_Milyon_TL_Arasi
Kastamonu,Ihsangazi,Satilik,1_5_arasi,Bahce,Kat_Kaloriferi,bilinmiyor,yok,var,yok,yok,yok,var,yok,yok,yok,yok,yok,yok,yok,yok,yok,yok,yok,yok,yok,yok,yok,yok,yok,yok,yok,var,var,yok,yok,yok,kademe_4,bilinmiyor,bilinmiyor,bilinmiyor,300_m2_ve_ustu,5_oda,bilinmiyor,2_banyo,yok,yok,yok,dusuk,dusuk,dusuk,yok,10_Milyon_TL_Ustu
Kastamonu,Bozkurt,Satilik,6_10_arasi,2,Soba,bilinmiyor,yok,yok,yok,yok,yok,yok,yok,yok,yok,yok,yok,yok,yok,yok,yok,yok,yok,yok,yok,yok,yok,yok,yok,yok,yok,yok,var,yok,yok,yok,kademe_4,normal,normal,kotu,150_200_m2,4_oda,orta_4_7_kat,1_banyo,yok,yok,yok,dusuk,yok,yok,yok,3_4_Milyon_TL_Arasi
Amasya,Merzifon,Satilik,0,1,Kombi_Dogalgaz,bilinmiyor,yok,yok,yok,yok,yok,yok,yok,var,var,yok,yok,yok,yok,yok,yok,yok,yok,yok,yok,yok,yok,yok,yok,yok,yok,yok,yok,yok,yok,yok,kademe_4,normal,bilinmiyor,bilinmiyor,125_150_m2,5_oda,orta_4_7_kat,2_banyo,yok,yok,yok,dusuk,dusuk,yok,yok,4_5_Milyon_TL_Arasi
Aksaray,Merkez,Satilik,1_5_arasi,Yuksek_Giris,Yerden_Isitma,bilinmiyor,yok,var,yok,yok,var,yok,yok,var,yok,yok,yok,yok,yok,yok,yok,yok,yok,yok,yok,yok,yok,yok,yok,yok,yok,yok,yok,yok,yok,yok,kademe_4,normal,normal,iyi,0_50_m2,2_oda,orta_4_7_kat,1_banyo,yok,yok,yok,dusuk,yok,yok,yok,1_5_Milyon_TL_Alti
Afyonkarahisar,Ihsaniye,Satilik,0,Kot_1,Jeotermal,bilinmiyor,yok,yok,yok,yok,var,yok,yok,yok,yok,yok,yok,yok,yok,yok,yok,yok,yok,yok,yok,yok,yok,yok,yok,yok,yok,yok,yok,yok,yok,yok,kademe_4,bilinmiyor,bilinmiyor,bilinmiyor,50_75_m2,3_oda,alcak_1_3_kat,1_banyo,yok,yok,yok,dusuk,yok,yok,yok,10_Milyon_TL_Ustu
Artvin,Arhavi,Satilik,21_25_arasi,1,bilinmiyor,bilinmiyor,yok,var,yok,yok,yok,yok,yok,yok,yok,yok,yok,yok,yok,yok,yok,yok,yok,yok,yok,yok,yok,yok,yok,yok,yok,yok,yok,yok,yok,yok,kademe_4,bilinmiyor,bilinmiyor,bilinmiyor,125_150_m2,4_oda,alcak_1_3_kat,1_banyo,yok,yok,yok,dusuk,dusuk,yok,yok,3_4_Milyon_TL_Arasi
Amasya,Merzifon,Satilik,11_15_arasi,1,Kombi_Dogalgaz,bilinmiyor,yok,var,var,yok,yok,var,var,var,yok,yok,yok,yok,yok,var,yok,yok,yok,yok,yok,yok,yok,yok,yok,yok,yok,var,yok,yok,yok,yok,kademe_4,normal,normal,bilinmiyor,100_125_m2,3_oda,orta_4_7_kat,1_banyo,dusuk,yok,yok,dusuk,yok,yuksek,yok,2_3_Milyon_TL_Arasi
Amasya,Merzifon,Satilik,11_15_arasi,4,Kombi_Dogalgaz,bilinmiyor,yok,var,var,var,yok,var,yok,var,var,yok,var,var,yok,yok,yok,yok,yok,yok,yok,yok,yok,yok,yok,yok,yok,var,yok,yok,yok,yok,kademe_4,normal,kotu,bilinmiyor,100_125_m2,3_oda,orta_4_7_kat,2_banyo,dusuk,yok,yok,dusuk,yok,yuksek,yok,2_3_Milyon_TL_Arasi
Amasya,Merkez,Satilik,1_5_arasi,3,Yerden_Isitma,bilinmiyor,yok,var,yok,yok,yok,yok,yok,var,var,yok,yok,yok,yok,var,yok,yok,yok,yok,yok,yok,yok,yok,yok,yok,yok,yok,yok,yok,yok,yok,kademe_4,bilinmiyor,normal,normal,100_125_m2,3_oda,orta_4_7_kat,1_banyo,yok,yok,yok,dusuk,orta,yuksek,yok,3_4_Milyon_TL_Arasi
Amasya,Merkez,Satilik,11_15_arasi,3,Kombi_Dogalgaz,bilinmiyor,yok,var,var,yok,yok,var,var,yok,yok,yok,var,yok,yok,yok,yok,yok,yok,yok,yok,yok,yok,yok,var,yok,yok,var,yok,yok,yok,yok,kademe_4,bilinmiyor,normal,kotu,125_150_m2,4_oda,orta_4_7_kat,1_banyo,yok,yok,yok,dusuk,yok,yuksek,yok,2_3_Milyon_TL_Arasi
Aksaray,Merkez,Satilik,0,2,Kombi,bilinmiyor,yok,var,yok,yok,yok,yok,var,var,yok,yok,yok,yok,yok,yok,yok,yok,yok,yok,yok,yok,yok,yok,yok,yok,yok,yok,yok,yok,yok,yok,kademe_4,iyi,normal,iyi,50_75_m2,2_oda,orta_4_7_kat,1_banyo,yok,yok,yok,dusuk,yok,yok,yok,1_5_2_Milyon_TL_Arasi
Kastamonu,Abana,Satilik,0,4,Kombi,bilinmiyor,yok,var,var,var,yok,var,var,var,yok,yok,var,var,yok,yok,yok,yok,yok,yok,yok,yok,yok,yok,var,yok,yok,var,yok,yok,yok,yok,kademe_4,bilinmiyor,normal,bilinmiyor,100_125_m2,3_oda,orta_4_7_kat,2_banyo,yok,yok,dusuk,orta,yuksek,orta,yok,4_5_Milyon_TL_Arasi
Amasya,Suluova,Satilik,16_20_arasi,bilinmiyor,Klima,bilinmiyor,yok,var,yok,var,yok,var,var,var,var,yok,yok,yok,yok,var,yok,yok,yok,yok,yok,yok,yok,yok,var,yok,yok,var,yok,yok,yok,yok,kademe_4,kotu,bilinmiyor,bilinmiyor,100_125_m2,4_oda,alcak_1_3_kat,1_banyo,yok,yok,yok,dusuk,orta,yuksek,yok,3_4_Milyon_TL_Arasi
Amasya,Merzifon,Satilik,1_5_arasi,1,Kombi,bilinmiyor,yok,var,yok,var,yok,var,var,var,var,yok,yok,yok,yok,yok,yok,yok,yok,yok,yok,yok,yok,yok,yok,yok,yok,yok,yok,yok,yok,yok,kademe_4,bilinmiyor,bilinmiyor,bilinmiyor,75_100_m2,3_oda,orta_4_7_kat,2_banyo,yok,yok,yok,dusuk,yok,yok,yok,3_4_Milyon_TL_Arasi
Amasya,Merzifon,Satilik,26_30_arasi,1,Soba,bilinmiyor,yok,yok,yok,yok,yok,var,yok,var,var,yok,yok,yok,yok,yok,yok,yok,yok,yok,var,yok,yok,yok,yok,yok,yok,var,yok,yok,yok,yok,kademe_4,kotu,bilinmiyor,kotu,150_200_m2,4_oda,alcak_1_3_kat,1_banyo,yok,yok,yok,dusuk,dusuk,orta,yok,3_4_Milyon_TL_Arasi
Afyonkarahisar,Merkez,Satilik,16_20_arasi,Giris,Kombi_Dogalgaz,bilinmiyor,yok,var,yok,var,yok,var,yok,var,yok,yok,yok,yok,yok,yok,yok,yok,yok,yok,yok,yok,yok,yok,yok,yok,yok,yok,yok,yok,yok,yok,kademe_4,normal,kotu,bilinmiyor,125_150_m2,4_oda,orta_4_7_kat,2_banyo,yok,yok,yok,dusuk,yok,yok,yok,4_5_Milyon_TL_Arasi
Amasya,Merkez,Satilik,0,5,Yerden_Isitma,bilinmiyor,yok,var,yok,var,yok,yok,yok,yok,var,yok,var,yok,yok,yok,yok,yok,yok,yok,yok,yok,yok,yok,yok,yok,yok,var,yok,yok,yok,yok,kademe_4,kotu,bilinmiyor,kotu,100_125_m2,3_oda,orta_4_7_kat,1_banyo,yok,yok,dusuk,dusuk,orta,orta,yok,4_5_Milyon_TL_Arasi
Afyonkarahisar,Merkez,Satilik,0,Yuksek_Giris,Kombi,bilinmiyor,yok,var,yok,var,yok,var,var,var,var,yok,var,yok,yok,var,yok,yok,yok,yok,yok,yok,yok,yok,var,yok,yok,var,yok,yok,yok,yok,kademe_4,iyi,bilinmiyor,bilinmiyor,100_125_m2,3_oda,orta_4_7_kat,1_banyo,yok,dusuk,yok,dusuk,yok,orta,yok,5_7_Bucuk_Milyon_TL_Arasi
Kastamonu,Inebolu,Satilik,11_15_arasi,bilinmiyor,Soba,bilinmiyor,yok,yok,yok,var,yok,var,var,var,var,yok,yok,var,yok,yok,yok,yok,yok,yok,yok,yok,yok,yok,var,yok,yok,var,yok,yok,yok,yok,kademe_4,kotu,bilinmiyor,kotu,125_150_m2,7_oda_ve_ustu,orta_4_7_kat,3_banyo_ve_ustu,yok,dusuk,yok,dusuk,yok,orta,yok,7_Bucuk_10_Milyon_TL_Arasi
Aksaray,Merkez,Satilik,0,2,Yerden_Isitma,bilinmiyor,yok,var,var,yok,var,yok,yok,yok,yok,yok,yok,yok,yok,yok,yok,yok,yok,yok,yok,yok,yok,yok,yok,yok,yok,yok,yok,yok,yok,yok,kademe_4,iyi,iyi,normal,50_75_m2,2_oda,alcak_1_3_kat,1_banyo,yok,yok,yok,dusuk,yok,yok,yok,1_5_Milyon_TL_Alti
Amasya,Merzifon,Satilik,31_ve_uzeri,bilinmiyor,Soba,bilinmiyor,yok,var,yok,var,yok,var,var,var,var,yok,yok,yok,yok,yok,yok,yok,yok,yok,yok,yok,yok,var,yok,yok,yok,var,yok,yok,yok,yok,kademe_4,normal,bilinmiyor,bilinmiyor,300_m2_ve_ustu,4_oda,alcak_1_3_kat,1_banyo,yok,yok,yok,dusuk,dusuk,dusuk,yok,3_4_Milyon_TL_Arasi
Amasya,Merkez,Satilik,0,Giris,Yerden_Isitma,bilinmiyor,yok,var,var,var,yok,var,yok,var,yok,yok,var,var,yok,var,yok,yok,yok,yok,yok,yok,yok,yok,var,yok,yok,var,yok,yok,yok,yok,kademe_4,iyi,normal,bilinmiyor,125_150_m2,4_oda,orta_4_7_kat,2_banyo,yok,yok,dusuk,dusuk,orta,yuksek,yok,5_7_Bucuk_Milyon_TL_Arasi
Aksaray,Merkez,Satilik,0,1,Kombi,bilinmiyor,yok,var,yok,yok,yok,var,yok,var,yok,yok,yok,yok,yok,yok,yok,yok,yok,yok,yok,yok,yok,yok,yok,yok,yok,var,yok,yok,yok,yok,kademe_4,bilinmiyor,normal,bilinmiyor,50_75_m2,2_oda,orta_4_7_kat,1_banyo,yok,yok,dusuk,orta,orta,orta,yok,2_3_Milyon_TL_Arasi
Sivas,Merkez,Satilik,16_20_arasi,10,Kombi,bilinmiyor,yok,var,var,var,yok,yok,var,var,yok,yok,var,yok,yok,yok,yok,yok,yok,yok,yok,yok,yok,yok,var,yok,yok,var,yok,yok,yok,yok,kademe_4,normal,normal,bilinmiyor,150_200_m2,4_oda,yuksek_8_15_kat,1_banyo,yok,yok,yok,dusuk,yuksek,orta,yok,3_4_Milyon_TL_Arasi
Afyonkarahisar,Merkez,Satilik,31_ve_uzeri,3,Kombi_Dogalgaz,bilinmiyor,yok,var,var,yok,yok,var,yok,var,yok,yok,yok,yok,yok,yok,yok,yok,yok,yok,yok,yok,yok,yok,yok,yok,yok,yok,yok,yok,yok,yok,kademe_4,normal,normal,bilinmiyor,100_125_m2,4_oda,orta_4_7_kat,1_banyo,yok,yok,yok,dusuk,yok,yok,yok,3_4_Milyon_TL_Arasi
Afyonkarahisar,Merkez,Satilik,0,1,Kombi,bilinmiyor,yok,var,var,var,yok,var,var,var,yok,yok,var,var,yok,var,yok,yok,yok,yok,yok,yok,yok,yok,var,yok,yok,var,yok,yok,yok,yok,kademe_4,iyi,bilinmiyor,bilinmiyor,125_150_m2,5_oda,orta_4_7_kat,2_banyo,yok,dusuk,yok,orta,orta,yuksek,yok,5_7_Bucuk_Milyon_TL_Arasi
Amasya,Gumushacikoy,Satilik,0,Ara_Kat,Kombi_Dogalgaz,bilinmiyor,yok,var,var,var,yok,yok,var,var,var,yok,var,yok,yok,yok,yok,yok,yok,yok,yok,yok,yok,yok,var,yok,yok,var,yok,yok,yok,yok,kademe_4,kotu,bilinmiyor,bilinmiyor,100_125_m2,3_oda,orta_4_7_kat,1_banyo,dusuk,yok,yok,dusuk,dusuk,yuksek,yok,3_4_Milyon_TL_Arasi
Artvin,Merkez,Satilik,16_20_arasi,5,Kombi,bilinmiyor,yok,var,var,var,yok,yok,yok,yok,yok,yok,yok,yok,yok,yok,yok,yok,yok,yok,yok,yok,yok,yok,yok,yok,yok,yok,yok,yok,yok,yok,kademe_4,normal,kotu,bilinmiyor,125_150_m2,4_oda,orta_4_7_kat,1_banyo,yok,yok,yok,dusuk,yok,yok,yok,4_5_Milyon_TL_Arasi
Amasya,Merzifon,Satilik,1_5_arasi,bilinmiyor,Kombi,bilinmiyor,yok,yok,yok,yok,yok,yok,yok,yok,yok,yok,yok,yok,yok,yok,yok,yok,yok,yok,yok,yok,yok,yok,yok,yok,yok,yok,yok,yok,yok,yok,kademe_4,iyi,bilinmiyor,bilinmiyor,300_m2_ve_ustu,3_oda,alcak_1_3_kat,1_banyo,yok,yok,yok,dusuk,yok,yok,yok,4_5_Milyon_TL_Arasi
Amasya,Merkez,Satilik,6_10_arasi,4,Kombi_Dogalgaz,bilinmiyor,yok,var,var,yok,yok,var,var,yok,yok,yok,var,var,yok,yok,yok,yok,yok,yok,yok,yok,yok,yok,var,yok,yok,var,yok,yok,yok,yok,kademe_4,normal,normal,bilinmiyor,125_150_m2,4_oda,orta_4_7_kat,2_banyo,yok,yok,yok,dusuk,dusuk,yuksek,yok,3_4_Milyon_TL_Arasi
Afyonkarahisar,Sandikli,Satilik,6_10_arasi,Bahce,bilinmiyor,bilinmiyor,yok,yok,yok,var,yok,yok,yok,yok,yok,yok,yok,yok,yok,yok,yok,yok,yok,yok,yok,yok,yok,yok,yok,yok,yok,yok,yok,yok,yok,yok,kademe_4,kotu,bilinmiyor,bilinmiyor,150_200_m2,5_oda,alcak_1_3_kat,1_banyo,yok,yok,yok,dusuk,yok,yok,yok,7_Bucuk_10_Milyon_TL_Arasi
Afyonkarahisar,Merkez,Satilik,31_ve_uzeri,Bahce,Soba,bilinmiyor,yok,yok,yok,yok,yok,yok,yok,var,var,yok,yok,yok,yok,yok,yok,yok,yok,yok,yok,yok,yok,yok,yok,yok,yok,var,yok,yok,yok,yok,kademe_4,kotu,kotu,bilinmiyor,125_150_m2,3_oda,alcak_1_3_kat,1_banyo,yok,yok,yok,dusuk,yok,yok,yok,3_4_Milyon_TL_Arasi
Kastamonu,Abana,Satilik,21_25_arasi,5,Kombi,bilinmiyor,yok,var,var,var,yok,yok,var,var,var,yok,var,yok,yok,var,yok,yok,yok,yok,yok,yok,yok,yok,var,yok,yok,yok,yok,yok,yok,yok,kademe_4,bilinmiyor,normal,bilinmiyor,125_150_m2,3_oda,orta_4_7_kat,1_banyo,dusuk,yok,dusuk,dusuk,yuksek,yuksek,yok,3_4_Milyon_TL_Arasi
Aksaray,Merkez,Satilik,1_5_arasi,4,Kombi,bilinmiyor,yok,var,var,yok,yok,yok,yok,yok,yok,yok,yok,yok,yok,yok,yok,yok,yok,yok,yok,yok,yok,yok,yok,yok,yok,yok,yok,yok,yok,yok,kademe_4,normal,bilinmiyor,bilinmiyor,150_200_m2,4_oda,orta_4_7_kat,1_banyo,yok,yok,yok,yok,yok,yok,yok,4_5_Milyon_TL_Arasi
Amasya,Merkez,Satilik,0,5,Yerden_Isitma,bilinmiyor,yok,var,yok,var,yok,yok,yok,var,yok,yok,var,yok,yok,yok,yok,yok,yok,yok,yok,yok,yok,yok,yok,yok,yok,var,yok,yok,yok,yok,kademe_4,iyi,normal,normal,50_75_m2,2_oda,orta_4_7_kat,1_banyo,yok,yok,yok,dusuk,orta,dusuk,yok,2_3_Milyon_TL_Arasi
Kastamonu,Inebolu,Satilik,0,9,Kombi,bilinmiyor,yok,var,yok,yok,yok,yok,yok,yok,yok,yok,yok,yok,yok,yok,yok,yok,yok,yok,yok,yok,yok,yok,yok,yok,yok,yok,yok,yok,yok,yok,kademe_4,bilinmiyor,bilinmiyor,bilinmiyor,200_300_m2,6_oda,yuksek_8_15_kat,3_banyo_ve_ustu,yok,yok,yok,dusuk,yok,yok,yok,10_Milyon_TL_Ustu
Aksaray,Merkez,Satilik,0,Ara_Kat,Kombi_Dogalgaz,bilinmiyor,yok,var,var,var,yok,yok,var,yok,yok,yok,var,yok,yok,var,yok,yok,yok,var,yok,yok,yok,yok,yok,yok,yok,var,yok,yok,yok,yok,kademe_4,bilinmiyor,normal,bilinmiyor,50_75_m2,2_oda,orta_4_7_kat,bilinmiyor,dusuk,yok,yok,dusuk,yuksek,yuksek,yok,2_3_Milyon_TL_Arasi
Afyonkarahisar,Merkez,Satilik,0,2,Yerden_Isitma,bilinmiyor,yok,var,var,var,var,var,yok,var,yok,yok,var,yok,yok,var,yok,yok,yok,yok,yok,yok,yok,yok,var,yok,yok,var,yok,yok,yok,yok,kademe_4,normal,iyi,bilinmiyor,75_100_m2,3_oda,orta_4_7_kat,1_banyo,dusuk,dusuk,dusuk,orta,yuksek,yuksek,yok,4_5_Milyon_TL_Arasi
Kastamonu,Inebolu,Satilik,11_15_arasi,bilinmiyor,Soba,bilinmiyor,yok,var,yok,var,yok,var,var,var,var,yok,yok,yok,yok,yok,yok,yok,yok,yok,yok,yok,yok,var,var,yok,yok,var,yok,yok,yok,yok,kademe_4,kotu,normal,bilinmiyor,300_m2_ve_ustu,4_oda,alcak_1_3_kat,1_banyo,yok,yok,yok,yok,yok,dusuk,yok,5_7_Bucuk_Milyon_TL_Arasi
Amasya,Merzifon,Satilik,16_20_arasi,4,Kombi_Dogalgaz,bilinmiyor,yok,yok,yok,yok,yok,var,var,yok,var,yok,yok,yok,yok,yok,yok,yok,yok,yok,yok,yok,yok,yok,yok,yok,yok,yok,yok,yok,yok,yok,kademe_4,normal,normal,bilinmiyor,125_150_m2,4_oda,orta_4_7_kat,1_banyo,yok,yok,yok,dusuk,yok,yok,yok,2_3_Milyon_TL_Arasi
Amasya,Merzifon,Satilik,6_10_arasi,4,Kombi_Dogalgaz,bilinmiyor,yok,var,var,var,yok,var,yok,var,var,yok,var,var,yok,var,yok,yok,yok,yok,yok,yok,yok,yok,yok,yok,yok,var,yok,yok,yok,yok,kademe_4,kotu,normal,bilinmiyor,125_150_m2,4_oda,orta_4_7_kat,2_banyo,yok,yok,yok,dusuk,orta,yuksek,yok,5_7_Bucuk_Milyon_TL_Arasi
Amasya,Merzifon,Satilik,1_5_arasi,Giris,Kombi,bilinmiyor,yok,yok,var,var,yok,var,var,var,yok,yok,var,yok,yok,yok,yok,yok,yok,yok,yok,yok,yok,yok,var,yok,yok,var,yok,yok,yok,yok,kademe_4,normal,bilinmiyor,bilinmiyor,100_125_m2,3_oda,orta_4_7_kat,1_banyo,dusuk,yok,dusuk,dusuk,yuksek,yuksek,yok,2_3_Milyon_TL_Arasi
Aksaray,Merkez,Satilik,31_ve_uzeri,Bahce,Kombi,bilinmiyor,yok,var,yok,yok,yok,yok,yok,yok,yok,yok,yok,yok,yok,yok,yok,yok,yok,yok,yok,yok,yok,yok,yok,yok,yok,yok,yok,yok,yok,yok,kademe_4,kotu,bilinmiyor,kotu,100_125_m2,4_oda,bilinmiyor,2_banyo,yok,yok,yok,dusuk,yok,yok,yok,3_4_Milyon_TL_Arasi
Kastamonu,Inebolu,Satilik,11_15_arasi,Yuksek_Giris,Kombi,bilinmiyor,yok,var,yok,var,yok,var,var,var,var,yok,var,yok,yok,var,yok,yok,yok,yok,yok,yok,yok,yok,var,yok,yok,yok,yok,yok,yok,yok,kademe_4,bilinmiyor,normal,bilinmiyor,100_125_m2,4_oda,orta_4_7_kat,1_banyo,dusuk,yok,yok,orta,orta,yuksek,yok,3_4_Milyon_TL_Arasi
Afyonkarahisar,Ihsaniye,Satilik,0,Bahce,isitma_yok,bilinmiyor,yok,var,yok,var,yok,var,var,yok,yok,yok,var,yok,yok,var,yok,yok,yok,yok,yok,yok,yok,yok,var,yok,yok,yok,var,yok,yok,yok,kademe_4,bilinmiyor,bilinmiyor,bilinmiyor,75_100_m2,6_oda,alcak_1_3_kat,2_banyo,yok,yok,yok,dusuk,dusuk,yuksek,yok,4_5_Milyon_TL_Arasi
Artvin,Merkez,Satilik,16_20_arasi,En_Ust_Kat,Kombi_Dogalgaz,bilinmiyor,yok,yok,yok,yok,var,yok,yok,yok,yok,yok,yok,yok,yok,yok,yok,yok,yok,yok,yok,yok,yok,yok,yok,yok,yok,yok,yok,yok,yok,yok,kademe_4,kotu,bilinmiyor,bilinmiyor,100_125_m2,4_oda,orta_4_7_kat,1_banyo,yok,yok,yok,dusuk,yok,yok,yok,2_3_Milyon_TL_Arasi
Kirsehir,Merkez,Satilik,16_20_arasi,4,Kombi_Dogalgaz,bilinmiyor,yok,yok,yok,yok,yok,yok,yok,yok,yok,yok,yok,yok,yok,yok,yok,yok,yok,yok,yok,yok,yok,yok,yok,yok,yok,yok,yok,yok,yok,yok,kademe_4,normal,kotu,kotu,150_200_m2,4_oda,orta_4_7_kat,1_banyo,yok,yok,yok,dusuk,yok,yok,yok,3_4_Milyon_TL_Arasi
Afyonkarahisar,Merkez,Satilik,6_10_arasi,5,Kombi,bilinmiyor,yok,yok,yok,yok,yok,yok,yok,var,yok,yok,yok,yok,yok,yok,yok,yok,yok,yok,yok,yok,yok,yok,yok,yok,yok,var,yok,yok,yok,yok,kademe_4,normal,iyi,bilinmiyor,75_100_m2,3_oda,orta_4_7_kat,1_banyo,yok,yok,dusuk,orta,orta,orta,yok,4_5_Milyon_TL_Arasi
Amasya,Merzifon,Satilik,0,5,Kombi_Dogalgaz,bilinmiyor,yok,yok,yok,yok,yok,var,yok,yok,yok,yok,var,yok,yok,var,yok,yok,yok,yok,yok,yok,yok,yok,yok,yok,yok,yok,yok,yok,yok,yok,kademe_4,iyi,normal,iyi,50_75_m2,3_oda,orta_4_7_kat,1_banyo,yok,yok,yok,dusuk,yok,yuksek,yok,2_3_Milyon_TL_Arasi
Elazig,Merkez,Satilik,6_10_arasi,Zemin,Merkezi,bilinmiyor,yok,yok,yok,yok,yok,yok,yok,yok,yok,yok,yok,yok,yok,yok,yok,yok,yok,yok,yok,yok,yok,yok,yok,yok,yok,yok,yok,yok,yok,yok,kademe_4,iyi,normal,bilinmiyor,150_200_m2,4_oda,yuksek_8_15_kat,1_banyo,yok,yok,yok,dusuk,yok,yok,yok,4_5_Milyon_TL_Arasi
Amasya,Merzifon,Satilik,1_5_arasi,1,Kombi_Dogalgaz,bilinmiyor,yok,yok,var,var,yok,yok,yok,var,var,yok,yok,yok,yok,var,yok,yok,yok,yok,yok,yok,yok,yok,yok,yok,yok,yok,yok,yok,yok,yok,kademe_4,kotu,iyi,bilinmiyor,100_125_m2,3_oda,orta_4_7_kat,1_banyo,dusuk,yok,yok,dusuk,orta,yuksek,yok,4_5_Milyon_TL_Arasi
Amasya,Merkez,Satilik,0,2,Yerden_Isitma,bilinmiyor,yok,var,yok,var,yok,var,yok,var,yok,yok,var,var,yok,var,yok,yok,yok,yok,yok,yok,yok,yok,yok,yok,yok,var,yok,yok,yok,yok,kademe_4,iyi,iyi,bilinmiyor,125_150_m2,4_oda,orta_4_7_kat,2_banyo,yok,yok,yok,dusuk,orta,yuksek,yok,5_7_Bucuk_Milyon_TL_Arasi
Aksaray,Gulagac,Satilik,6_10_arasi,bilinmiyor,Kat_Kaloriferi,bilinmiyor,yok,yok,yok,var,yok,yok,yok,yok,yok,yok,yok,yok,yok,yok,yok,yok,yok,yok,yok,yok,yok,yok,yok,yok,yok,yok,var,yok,yok,yok,kademe_4,iyi,normal,kotu,200_300_m2,4_oda,alcak_1_3_kat,1_banyo,yok,yok,yok,dusuk,yok,yok,yok,5_7_Bucuk_Milyon_TL_Arasi
Amasya,Merzifon,Satilik,0,1,Kombi_Dogalgaz,bilinmiyor,yok,var,var,var,yok,var,var,var,var,yok,var,yok,yok,yok,yok,yok,yok,yok,yok,yok,yok,yok,var,yok,yok,var,yok,yok,yok,yok,kademe_4,iyi,normal,bilinmiyor,100_125_m2,3_oda,orta_4_7_kat,1_banyo,dusuk,yok,yok,dusuk,dusuk,yuksek,yok,3_4_Milyon_TL_Arasi
Elazig,Merkez,Satilik,0,Giris,Kombi,bilinmiyor,yok,var,yok,var,yok,yok,yok,yok,yok,yok,yok,yok,yok,yok,yok,yok,yok,yok,yok,yok,yok,yok,yok,yok,yok,yok,yok,yok,yok,yok,kademe_4,iyi,normal,normal,50_75_m2,2_oda,orta_4_7_kat,1_banyo,yok,yok,yok,dusuk,yok,yok,yok,2_3_Milyon_TL_Arasi
Afyonkarahisar,Merkez,Satilik,0,1,Yerden_Isitma,bilinmiyor,yok,yok,var,yok,yok,yok,yok,var,yok,yok,yok,yok,yok,yok,yok,yok,yok,yok,yok,yok,yok,yok,yok,yok,yok,yok,yok,yok,yok,yok,kademe_4,iyi,iyi,bilinmiyor,125_150_m2,4_oda,orta_4_7_kat,2_banyo,yok,yok,yok,dusuk,yok,yok,yok,4_5_Milyon_TL_Arasi
Sivas,Merkez,Satilik,26_30_arasi,bilinmiyor,Kombi_Dogalgaz,bilinmiyor,yok,yok,yok,var,yok,yok,yok,var,yok,yok,yok,yok,yok,yok,yok,yok,yok,yok,yok,yok,yok,yok,yok,yok,yok,yok,yok,yok,yok,yok,kademe_4,bilinmiyor,bilinmiyor,bilinmiyor,300_m2_ve_ustu,3_oda,alcak_1_3_kat,1_banyo,yok,yok,yok,dusuk,yok,yok,yok,5_7_Bucuk_Milyon_TL_Arasi
Elazig,Merkez,Satilik,6_10_arasi,2,Kombi,bilinmiyor,yok,var,var,var,yok,yok,yok,var,var,yok,var,var,yok,yok,yok,yok,yok,yok,yok,yok,yok,yok,yok,yok,yok,yok,yok,yok,yok,yok,kademe_4,normal,iyi,bilinmiyor,200_300_m2,5_oda,yuksek_8_15_kat,2_banyo,yok,yok,yok,dusuk,orta,orta,yok,3_4_Milyon_TL_Arasi
Aksaray,Merkez,Satilik,1_5_arasi,2,Kombi,bilinmiyor,yok,var,var,yok,var,yok,yok,yok,yok,yok,yok,yok,yok,yok,yok,yok,yok,yok,yok,yok,yok,yok,yok,yok,yok,yok,yok,yok,yok,yok,kademe_4,normal,bilinmiyor,iyi,50_75_m2,2_oda,orta_4_7_kat,1_banyo,yok,yok,yok,dusuk,yok,yok,yok,1_5_Milyon_TL_Alti
Amasya,Merzifon,Satilik,16_20_arasi,5,Kombi_Dogalgaz,bilinmiyor,yok,var,var,yok,var,yok,yok,var,var,yok,var,yok,yok,var,yok,yok,yok,yok,yok,yok,yok,yok,yok,yok,yok,var,yok,yok,yok,yok,kademe_4,kotu,normal,bilinmiyor,100_125_m2,3_oda,orta_4_7_kat,1_banyo,yok,yok,yok,dusuk,dusuk,yuksek,yok,1_5_2_Milyon_TL_Arasi
Amasya,Suluova,Satilik,21_25_arasi,bilinmiyor,Kat_Kaloriferi,bilinmiyor,yok,yok,yok,yok,yok,yok,yok,var,yok,yok,yok,yok,yok,yok,yok,yok,yok,yok,yok,yok,yok,yok,yok,yok,yok,yok,yok,yok,yok,yok,kademe_4,bilinmiyor,bilinmiyor,bilinmiyor,300_m2_ve_ustu,7_oda_ve_ustu,orta_4_7_kat,3_banyo_ve_ustu,yok,yok,yok,dusuk,yok,yok,yok,7_Bucuk_10_Milyon_TL_Arasi
Aksaray,Merkez,Satilik,1_5_arasi,3,Kombi_Dogalgaz,bilinmiyor,yok,var,yok,var,yok,yok,var,var,var,yok,yok,yok,yok,yok,yok,yok,yok,yok,yok,yok,yok,yok,yok,yok,yok,yok,yok,yok,yok,yok,kademe_4,iyi,bilinmiyor,bilinmiyor,125_150_m2,4_oda,orta_4_7_kat,1_banyo,yok,yok,yok,yok,yok,yok,yok,4_5_Milyon_TL_Arasi
Amasya,Merzifon,Satilik,21_25_arasi,5,Kombi_Dogalgaz,bilinmiyor,yok,yok,yok,yok,yok,var,yok,var,var,yok,yok,yok,yok,yok,yok,yok,yok,yok,yok,yok,yok,yok,yok,yok,yok,yok,yok,yok,yok,yok,kademe_4,iyi,normal,bilinmiyor,125_150_m2,4_oda,orta_4_7_kat,1_banyo,yok,yok,yok,dusuk,dusuk,yok,yok,2_3_Milyon_TL_Arasi
Aksaray,Merkez,Satilik,0,2,Kombi,bilinmiyor,yok,var,yok,var,var,var,yok,yok,var,yok,yok,yok,yok,yok,yok,yok,yok,yok,yok,yok,yok,yok,yok,yok,yok,yok,yok,yok,yok,yok,kademe_4,bilinmiyor,iyi,bilinmiyor,0_50_m2,2_oda,orta_4_7_kat,1_banyo,dusuk,yok,dusuk,dusuk,orta,yuksek,yok,1_5_2_Milyon_TL_Arasi
Aksaray,Merkez,Satilik,0,Yuksek_Giris,Yerden_Isitma,bilinmiyor,yok,var,var,var,yok,var,yok,var,yok,yok,yok,yok,yok,yok,yok,yok,yok,yok,yok,yok,yok,yok,yok,yok,yok,yok,yok,yok,yok,yok,kademe_4,iyi,bilinmiyor,iyi,50_75_m2,2_oda,orta_4_7_kat,1_banyo,yok,yok,yok,yok,orta,yok,yok,2_3_Milyon_TL_Arasi
Aksaray,Merkez,Satilik,1_5_arasi,Yuksek_Giris,Kombi,bilinmiyor,yok,var,var,yok,yok,yok,var,yok,yok,yok,yok,yok,yok,yok,yok,yok,yok,yok,yok,yok,yok,yok,yok,yok,yok,yok,yok,yok,yok,yok,kademe_4,iyi,normal,bilinmiyor,125_150_m2,4_oda,orta_4_7_kat,1_banyo,yok,yok,yok,yok,yok,yok,yok,3_4_Milyon_TL_Arasi
Artvin,Merkez,Satilik,16_20_arasi,Ara_Kat,Kombi,bilinmiyor,yok,yok,var,var,yok,yok,yok,yok,yok,yok,yok,yok,yok,yok,yok,yok,yok,yok,yok,yok,yok,yok,yok,yok,yok,yok,yok,yok,yok,yok,kademe_4,normal,bilinmiyor,kotu,125_150_m2,4_oda,yuksek_8_15_kat,1_banyo,yok,yok,yok,dusuk,yok,yok,yok,4_5_Milyon_TL_Arasi
Kastamonu,Merkez,Satilik,26_30_arasi,Yuksek_Giris,Soba,bilinmiyor,yok,yok,yok,yok,yok,var,yok,var,yok,yok,yok,yok,yok,yok,yok,yok,yok,yok,yok,yok,yok,yok,yok,yok,yok,var,yok,yok,yok,yok,kademe_4,kotu,bilinmiyor,bilinmiyor,100_125_m2,7_oda_ve_ustu,orta_4_7_kat,1_banyo,yok,yok,yok,dusuk,dusuk,dusuk,yok,1_5_2_Milyon_TL_Arasi
Sivas,Merkez,Satilik,6_10_arasi,2,Merkezi,bilinmiyor,yok,var,var,var,var,var,var,var,yok,yok,var,yok,yok,var,yok,yok,yok,var,yok,yok,yok,yok,yok,yok,yok,var,yok,yok,yok,yok,kademe_4,kotu,normal,kotu,125_150_m2,4_oda,orta_4_7_kat,2_banyo,dusuk,yok,yok,dusuk,orta,yuksek,yok,4_5_Milyon_TL_Arasi
Artvin,Merkez,Satilik,6_10_arasi,6,Kombi_Dogalgaz,bilinmiyor,yok,var,var,var,var,var,var,var,var,yok,yok,yok,yok,yok,yok,yok,yok,yok,yok,yok,yok,yok,yok,yok,yok,yok,yok,yok,yok,yok,kademe_4,iyi,normal,kotu,200_300_m2,6_oda,yuksek_8_15_kat,2_banyo,yok,yok,yok,dusuk,yok,yok,yok,5_7_Bucuk_Milyon_TL_Arasi
Elazig,Merkez,Satilik,16_20_arasi,1,bilinmiyor,bilinmiyor,yok,var,yok,yok,yok,yok,yok,yok,yok,yok,yok,yok,yok,yok,yok,yok,yok,yok,yok,yok,yok,yok,yok,yok,yok,yok,yok,yok,yok,yok,kademe_4,bilinmiyor,bilinmiyor,bilinmiyor,125_150_m2,4_oda,alcak_1_3_kat,1_banyo,yok,yok,yok,dusuk,yok,yok,yok,3_4_Milyon_TL_Arasi
Elazig,Merkez,Satilik,6_10_arasi,1,bilinmiyor,bilinmiyor,yok,yok,var,yok,yok,yok,yok,yok,yok,yok,yok,yok,yok,yok,yok,yok,yok,yok,yok,yok,yok,yok,yok,yok,yok,yok,yok,yok,yok,yok,kademe_4,normal,bilinmiyor,bilinmiyor,75_100_m2,3_oda,alcak_1_3_kat,1_banyo,yok,yok,yok,dusuk,yok,yok,yok,3_4_Milyon_TL_Arasi
Amasya,Gumushacikoy,Satilik,31_ve_uzeri,En_Ust_Kat,Kombi_Dogalgaz,bilinmiyor,yok,var,yok,yok,yok,var,var,var,var,yok,yok,yok,yok,var,yok,yok,yok,yok,yok,yok,yok,yok,yok,yok,yok,yok,yok,yok,yok,yok,kademe_4,kotu,normal,kotu,100_125_m2,3_oda,orta_4_7_kat,1_banyo,yok,yok,yok,dusuk,yok,dusuk,yok,2_3_Milyon_TL_Arasi
Kastamonu,Taskopru,Satilik,11_15_arasi,3,Kombi,bilinmiyor,yok,var,var,var,yok,var,yok,var,yok,yok,var,yok,yok,var,yok,yok,yok,yok,yok,yok,yok,yok,yok,yok,yok,yok,yok,yok,yok,yok,kademe_4,iyi,kotu,bilinmiyor,150_200_m2,4_oda,orta_4_7_kat,1_banyo,yok,yok,dusuk,orta,yuksek,yuksek,yok,2_3_Milyon_TL_Arasi
Elazig,Merkez,Satilik,0,Kot_1,Merkezi,bilinmiyor,yok,yok,yok,yok,yok,yok,yok,yok,yok,yok,yok,yok,yok,yok,yok,yok,yok,yok,yok,yok,yok,yok,yok,yok,yok,yok,yok,yok,yok,yok,kademe_4,normal,normal,bilinmiyor,100_125_m2,4_oda,orta_4_7_kat,1_banyo,yok,yok,yok,dusuk,yok,yok,yok,1_5_2_Milyon_TL_Arasi
Kastamonu,Merkez,Satilik,0,Bahce,Merkezi,bilinmiyor,yok,var,var,var,yok,var,yok,yok,var,yok,var,var,yok,var,yok,yok,yok,yok,var,yok,yok,yok,var,yok,yok,var,yok,yok,yok,yok,kademe_4,bilinmiyor,bilinmiyor,bilinmiyor,150_200_m2,4_oda,cok_yuksek_16_ustu_kat,2_banyo,dusuk,dusuk,dusuk,orta,yuksek,yuksek,yok,5_7_Bucuk_Milyon_TL_Arasi
Kirsehir,Merkez,Satilik,0,2,Kombi,bilinmiyor,yok,var,var,yok,var,yok,yok,yok,yok,yok,yok,yok,yok,yok,yok,yok,yok,yok,yok,yok,yok,yok,yok,yok,yok,yok,yok,yok,yok,yok,kademe_4,normal,bilinmiyor,iyi,50_75_m2,2_oda,orta_4_7_kat,1_banyo,yok,yok,yok,dusuk,yok,yok,yok,2_3_Milyon_TL_Arasi
Amasya,Merkez,Satilik,0,2,Yerden_Isitma,bilinmiyor,yok,var,yok,var,yok,yok,yok,yok,var,yok,yok,yok,yok,yok,yok,yok,yok,yok,yok,yok,yok,yok,yok,yok,yok,var,yok,yok,yok,yok,kademe_4,normal,bilinmiyor,bilinmiyor,50_75_m2,2_oda,orta_4_7_kat,1_banyo,yok,yok,dusuk,dusuk,orta,orta,yok,2_3_Milyon_TL_Arasi
Aksaray,Merkez,Satilik,0,2,Kombi,bilinmiyor,yok,var,var,var,yok,yok,yok,yok,yok,yok,yok,yok,yok,yok,yok,yok,yok,yok,yok,yok,yok,yok,yok,yok,yok,yok,yok,yok,yok,yok,kademe_4,normal,bilinmiyor,bilinmiyor,150_200_m2,4_oda,orta_4_7_kat,1_banyo,yok,yok,yok,yok,yok,yok,yok,4_5_Milyon_TL_Arasi
Afyonkarahisar,Merkez,Satilik,31_ve_uzeri,Bahce,Soba,bilinmiyor,yok,yok,yok,yok,yok,yok,yok,var,yok,yok,yok,yok,yok,yok,yok,yok,yok,yok,yok,yok,yok,yok,yok,yok,yok,var,var,yok,yok,yok,kademe_4,kotu,kotu,kotu,50_75_m2,3_oda,bilinmiyor,1_banyo,yok,yok,yok,dusuk,orta,dusuk,yok,1_5_Milyon_TL_Alti
Aksaray,Merkez,Satilik,0,7,Kombi_Dogalgaz,bilinmiyor,yok,var,var,yok,yok,yok,yok,yok,yok,yok,yok,yok,yok,yok,yok,yok,yok,yok,yok,yok,yok,yok,yok,yok,yok,yok,yok,yok,yok,yok,kademe_4,iyi,normal,bilinmiyor,50_75_m2,2_oda,yuksek_8_15_kat,1_banyo,yok,yok,yok,yok,yok,yok,yok,1_5_2_Milyon_TL_Arasi
Aksaray,Merkez,Satilik,16_20_arasi,4,Kombi,bilinmiyor,yok,var,var,yok,yok,yok,yok,var,yok,yok,yok,var,yok,var,yok,yok,yok,yok,yok,yok,yok,yok,var,yok,yok,var,var,yok,yok,yok,kademe_4,iyi,normal,bilinmiyor,300_m2_ve_ustu,7_oda_ve_ustu,orta_4_7_kat,3_banyo_ve_ustu,dusuk,dusuk,dusuk,dusuk,orta,yuksek,yok,5_7_Bucuk_Milyon_TL_Arasi
Kastamonu,Merkez,Satilik,16_20_arasi,Bahce,isitma_yok,bilinmiyor,yok,var,yok,yok,yok,yok,yok,var,var,yok,yok,yok,yok,yok,yok,yok,yok,yok,yok,yok,yok,yok,var,yok,yok,var,yok,yok,yok,yok,kademe_4,kotu,bilinmiyor,bilinmiyor,150_200_m2,6_oda,bilinmiyor,2_banyo,dusuk,yok,dusuk,orta,orta,yok,yok,7_Bucuk_10_Milyon_TL_Arasi
Afyonkarahisar,Merkez,Satilik,6_10_arasi,4,Kombi_Dogalgaz,bilinmiyor,yok,yok,var,yok,var,yok,yok,var,yok,yok,var,yok,yok,var,yok,yok,yok,yok,yok,yok,yok,yok,yok,yok,yok,yok,yok,yok,yok,yok,kademe_4,kotu,kotu,kotu,50_75_m2,3_oda,orta_4_7_kat,1_banyo,yok,yok,yok,dusuk,yok,orta,yok,1_5_Milyon_TL_Alti
Aksaray,Merkez,Satilik,26_30_arasi,Zemin,Kombi,bilinmiyor,yok,var,var,yok,yok,yok,yok,yok,yok,yok,yok,yok,yok,yok,yok,yok,yok,yok,yok,yok,yok,yok,yok,yok,yok,yok,yok,yok,yok,yok,kademe_4,normal,kotu,bilinmiyor,150_200_m2,5_oda,orta_4_7_kat,1_banyo,yok,yok,yok,yok,yok,yok,yok,2_3_Milyon_TL_Arasi
Kastamonu,Merkez,Satilik,1_5_arasi,2,Kombi_Dogalgaz,bilinmiyor,yok,yok,var,var,yok,var,var,var,yok,yok,yok,yok,yok,yok,yok,yok,yok,yok,yok,yok,yok,yok,yok,yok,yok,yok,yok,yok,yok,yok,kademe_4,normal,kotu,iyi,200_300_m2,4_oda,yuksek_8_15_kat,2_banyo,yok,yok,yok,dusuk,yok,yok,yok,5_7_Bucuk_Milyon_TL_Arasi
Kastamonu,Merkez,Satilik,31_ve_uzeri,bilinmiyor,Kombi_Dogalgaz,bilinmiyor,yok,yok,yok,var,yok,yok,yok,yok,yok,yok,yok,yok,yok,yok,yok,yok,yok,yok,yok,yok,yok,yok,yok,yok,yok,yok,yok,yok,yok,yok,kademe_4,kotu,kotu,bilinmiyor,300_m2_ve_ustu,7_oda_ve_ustu,orta_4_7_kat,3_banyo_ve_ustu,yok,yok,yok,dusuk,yok,yok,yok,3_4_Milyon_TL_Arasi
Aksaray,Merkez,Satilik,0,2,Kombi,bilinmiyor,yok,var,yok,var,yok,var,yok,var,var,yok,var,var,yok,var,var,yok,yok,yok,yok,yok,yok,yok,var,yok,yok,var,yok,yok,yok,yok,kademe_4,iyi,bilinmiyor,bilinmiyor,100_125_m2,3_oda,orta_4_7_kat,1_banyo,dusuk,orta,orta,dusuk,yuksek,yuksek,yok,4_5_Milyon_TL_Arasi
Amasya,Gumushacikoy,Satilik,31_ve_uzeri,bilinmiyor,Kat_Kaloriferi,bilinmiyor,yok,yok,yok,yok,var,var,var,var,var,yok,var,yok,yok,var,var,yok,yok,yok,yok,yok,yok,yok,yok,yok,yok,var,yok,yok,yok,yok,kademe_4,bilinmiyor,bilinmiyor,bilinmiyor,100_125_m2,3_oda,alcak_1_3_kat,1_banyo,yok,yok,yok,dusuk,yok,dusuk,yok,4_5_Milyon_TL_Arasi
Afyonkarahisar,Merkez,Satilik,6_10_arasi,1,bilinmiyor,bilinmiyor,yok,var,var,yok,yok,yok,yok,yok,yok,yok,yok,yok,yok,yok,yok,yok,yok,yok,yok,yok,yok,yok,yok,yok,yok,yok,yok,yok,yok,yok,kademe_4,bilinmiyor,normal,bilinmiyor,100_125_m2,3_oda,alcak_1_3_kat,1_banyo,yok,yok,yok,dusuk,yok,yok,yok,5_7_Bucuk_Milyon_TL_Arasi
Kastamonu,Merkez,Satilik,0,6,Merkezi,bilinmiyor,yok,var,var,var,yok,yok,yok,var,yok,yok,var,var,yok,var,yok,yok,yok,yok,yok,yok,yok,yok,var,yok,yok,var,yok,yok,yok,yok,kademe_4,iyi,bilinmiyor,kotu,100_125_m2,4_oda,yuksek_8_15_kat,2_banyo,dusuk,yok,dusuk,dusuk,orta,yuksek,yok,5_7_Bucuk_Milyon_TL_Arasi
Amasya,Merkez,Satilik,16_20_arasi,2,Kombi,bilinmiyor,yok,var,yok,var,yok,yok,yok,yok,yok,yok,var,yok,yok,var,yok,yok,yok,yok,yok,yok,yok,yok,yok,yok,yok,var,yok,yok,yok,yok,kademe_4,normal,normal,bilinmiyor,125_150_m2,4_oda,orta_4_7_kat,1_banyo,yok,yok,yok,dusuk,orta,yuksek,yok,2_3_Milyon_TL_Arasi
Afyonkarahisar,Merkez,Satilik,1_5_arasi,3,belirtilmemis_elektrik,bilinmiyor,yok,var,var,var,var,var,var,var,yok,yok,var,yok,yok,var,yok,yok,yok,yok,yok,yok,yok,yok,yok,yok,yok,var,yok,yok,yok,yok,kademe_4,iyi,normal,normal,75_100_m2,2_oda,orta_4_7_kat,1_banyo,dusuk,dusuk,dusuk,dusuk,yok,yuksek,yok,1_5_2_Milyon_TL_Arasi
Kastamonu,Merkez,Satilik,6_10_arasi,Ara_Kat,Merkezi,bilinmiyor,yok,var,var,var,yok,yok,yok,yok,yok,yok,var,yok,yok,yok,yok,yok,yok,yok,yok,yok,yok,yok,yok,yok,yok,var,yok,yok,yok,yok,kademe_4,normal,normal,normal,125_150_m2,4_oda,orta_4_7_kat,1_banyo,dusuk,yok,yok,dusuk,yok,yuksek,yok,4_5_Milyon_TL_Arasi
Aksaray,Merkez,Satilik,0,2,Kombi,bilinmiyor,yok,var,yok,yok,var,yok,var,yok,var,yok,var,yok,yok,yok,yok,yok,yok,yok,yok,yok,yok,yok,var,yok,yok,yok,yok,yok,yok,yok,kademe_4,normal,bilinmiyor,iyi,50_75_m2,2_oda,orta_4_7_kat,1_banyo,yok,yok,dusuk,dusuk,orta,yuksek,yok,1_5_2_Milyon_TL_Arasi
Afyonkarahisar,Merkez,Satilik,0,5,Kombi,bilinmiyor,yok,var,var,var,yok,var,var,var,yok,yok,yok,yok,yok,yok,yok,yok,yok,yok,yok,yok,yok,yok,yok,yok,yok,yok,yok,yok,yok,yok,kademe_4,kotu,bilinmiyor,bilinmiyor,100_125_m2,4_oda,orta_4_7_kat,1_banyo,yok,yok,yok,dusuk,yok,yok,yok,4_5_Milyon_TL_Arasi
Kastamonu,Merkez,Satilik,6_10_arasi,4,Kombi,bilinmiyor,yok,var,var,var,yok,yok,var,yok,yok,yok,var,yok,yok,var,yok,yok,yok,yok,yok,yok,yok,yok,var,yok,yok,yok,yok,yok,yok,yok,kademe_4,iyi,bilinmiyor,bilinmiyor,100_125_m2,3_oda,orta_4_7_kat,1_banyo,yok,yok,dusuk,orta,orta,yuksek,yok,3_4_Milyon_TL_Arasi
Afyonkarahisar,Sandikli,Satilik,26_30_arasi,Bahce,Soba,bilinmiyor,yok,var,yok,yok,yok,var,var,var,yok,yok,yok,yok,yok,yok,yok,yok,yok,yok,yok,yok,yok,yok,yok,yok,yok,yok,yok,yok,yok,yok,kademe_4,bilinmiyor,bilinmiyor,bilinmiyor,150_200_m2,3_oda,bilinmiyor,1_banyo,yok,yok,yok,dusuk,yok,yok,yok,1_5_Milyon_TL_Alti
Kastamonu,Merkez,Satilik,0,Ara_Kat,Merkezi,bilinmiyor,yok,var,var,var,yok,yok,yok,yok,yok,yok,var,var,yok,yok,yok,yok,yok,var,yok,yok,yok,yok,yok,yok,yok,var,yok,yok,yok,yok,kademe_4,bilinmiyor,bilinmiyor,bilinmiyor,100_125_m2,3_oda,yuksek_8_15_kat,2_banyo,orta,dusuk,yok,dusuk,orta,yuksek,yok,4_5_Milyon_TL_Arasi
Artvin,Arhavi,Satilik,1_5_arasi,Yuksek_Giris,Kombi_Dogalgaz,bilinmiyor,yok,var,var,var,yok,yok,yok,var,yok,yok,yok,yok,yok,yok,yok,yok,yok,yok,yok,yok,yok,yok,yok,yok,yok,yok,yok,yok,yok,yok,kademe_4,normal,iyi,normal,75_100_m2,3_oda,orta_4_7_kat,1_banyo,yok,yok,yok,dusuk,yok,yok,yok,2_3_Milyon_TL_Arasi
Amasya,Merzifon,Satilik,6_10_arasi,Ara_Kat,Kombi_Dogalgaz,bilinmiyor,yok,var,var,var,yok,var,var,yok,var,yok,var,yok,yok,var,yok,yok,yok,yok,yok,yok,yok,yok,yok,yok,yok,yok,yok,yok,yok,yok,kademe_4,bilinmiyor,bilinmiyor,bilinmiyor,125_150_m2,4_oda,orta_4_7_kat,1_banyo,dusuk,yok,yok,dusuk,yok,yuksek,yok,4_5_Milyon_TL_Arasi
Afyonkarahisar,Merkez,Satilik,6_10_arasi,3,Kombi,bilinmiyor,yok,var,yok,var,yok,var,yok,var,var,yok,var,var,yok,yok,yok,yok,yok,yok,yok,yok,yok,yok,yok,yok,yok,var,yok,yok,yok,yok,kademe_4,iyi,normal,bilinmiyor,150_200_m2,5_oda,orta_4_7_kat,2_banyo,dusuk,yok,yok,orta,yuksek,yuksek,yok,5_7_Bucuk_Milyon_TL_Arasi
Kastamonu,Merkez,Satilik,11_15_arasi,7,Kombi,bilinmiyor,yok,var,var,var,yok,var,yok,var,yok,yok,var,yok,yok,var,yok,yok,yok,yok,yok,yok,yok,yok,var,yok,yok,var,yok,yok,yok,yok,kademe_4,iyi,kotu,bilinmiyor,150_200_m2,4_oda,yuksek_8_15_kat,1_banyo,dusuk,yok,dusuk,dusuk,yuksek,yuksek,yok,5_7_Bucuk_Milyon_TL_Arasi
Sivas,Merkez,Satilik,26_30_arasi,4,Kombi_Dogalgaz,bilinmiyor,yok,var,yok,var,yok,yok,yok,var,var,yok,var,yok,yok,yok,yok,yok,yok,yok,yok,yok,yok,yok,yok,yok,yok,var,yok,yok,yok,yok,kademe_4,normal,normal,bilinmiyor,100_125_m2,3_oda,orta_4_7_kat,1_banyo,yok,yok,yok,dusuk,yok,yuksek,yok,2_3_Milyon_TL_Arasi
Aksaray,Merkez,Satilik,0,2,Yerden_Isitma,bilinmiyor,yok,var,yok,var,yok,var,var,var,var,yok,yok,yok,yok,yok,yok,yok,yok,yok,yok,yok,yok,yok,yok,yok,yok,yok,yok,yok,yok,yok,kademe_4,iyi,iyi,iyi,0_50_m2,2_oda,orta_4_7_kat,1_banyo,yok,yok,yok,yok,yok,yok,yok,1_5_2_Milyon_TL_Arasi
Aksaray,Merkez,Satilik,1_5_arasi,2,Kombi,bilinmiyor,yok,var,yok,yok,var,var,var,var,var,yok,var,yok,yok,yok,yok,yok,yok,yok,yok,yok,yok,yok,yok,yok,yok,var,yok,yok,yok,yok,kademe_4,normal,normal,iyi,0_50_m2,2_oda,orta_4_7_kat,1_banyo,yok,yok,yok,dusuk,dusuk,dusuk,yok,1_5_Milyon_TL_Alti
Amasya,Merzifon,Satilik,0,1,Yerden_Isitma,bilinmiyor,yok,var,yok,var,yok,yok,var,yok,yok,yok,yok,yok,yok,yok,yok,yok,yok,yok,yok,yok,yok,yok,yok,yok,yok,yok,yok,yok,yok,yok,kademe_4,bilinmiyor,bilinmiyor,bilinmiyor,50_75_m2,2_oda,orta_4_7_kat,1_banyo,yok,yok,yok,dusuk,yok,yok,yok,1_5_2_Milyon_TL_Arasi
Afyonkarahisar,Merkez,Satilik,0,Kot_3,Yerden_Isitma,bilinmiyor,yok,var,var,var,yok,yok,yok,var,yok,yok,var,yok,yok,var,yok,yok,yok,yok,yok,yok,yok,yok,yok,yok,yok,var,yok,yok,yok,yok,kademe_4,iyi,iyi,iyi,100_125_m2,2_oda,orta_4_7_kat,1_banyo,dusuk,yok,yok,dusuk,yok,yuksek,yok,3_4_Milyon_TL_Arasi
Kastamonu,Merkez,Satilik,1_5_arasi,3,Merkezi,bilinmiyor,yok,var,var,var,yok,var,var,yok,var,yok,var,var,yok,var,yok,yok,yok,yok,yok,yok,yok,yok,var,yok,yok,var,yok,yok,yok,yok,kademe_4,bilinmiyor,normal,kotu,100_125_m2,3_oda,cok_yuksek_16_ustu_kat,2_banyo,orta,yok,dusuk,orta,yuksek,yuksek,yok,4_5_Milyon_TL_Arasi
Afyonkarahisar,Merkez,Satilik,0,2,Kombi_Dogalgaz,bilinmiyor,yok,yok,var,var,yok,yok,yok,var,var,yok,yok,yok,yok,yok,yok,yok,yok,yok,yok,yok,yok,yok,yok,yok,yok,yok,yok,yok,yok,yok,kademe_4,iyi,normal,bilinmiyor,75_100_m2,3_oda,orta_4_7_kat,1_banyo,yok,yok,yok,dusuk,dusuk,yok,yok,4_5_Milyon_TL_Arasi
Kastamonu,Merkez,Satilik,1_5_arasi,17,Kombi,bilinmiyor,yok,var,var,var,yok,yok,yok,var,yok,yok,var,var,yok,yok,yok,yok,yok,yok,yok,yok,yok,yok,yok,yok,yok,yok,yok,yok,yok,yok,kademe_4,normal,normal,normal,100_125_m2,3_oda,cok_yuksek_16_ustu_kat,2_banyo,dusuk,yok,yok,dusuk,orta,orta,yok,3_4_Milyon_TL_Arasi
Kirsehir,Merkez,Satilik,0,2,Kombi,bilinmiyor,yok,var,yok,yok,yok,yok,yok,yok,yok,yok,yok,yok,yok,yok,yok,yok,yok,yok,yok,yok,yok,yok,yok,yok,yok,yok,yok,yok,yok,yok,kademe_4,normal,bilinmiyor,bilinmiyor,50_75_m2,2_oda,orta_4_7_kat,1_banyo,yok,yok,yok,dusuk,yok,yok,yok,2_3_Milyon_TL_Arasi
Kastamonu,Merkez,Satilik,0,4,Merkezi,bilinmiyor,yok,var,var,var,yok,yok,yok,yok,yok,yok,yok,yok,yok,yok,yok,yok,yok,yok,yok,yok,yok,yok,yok,yok,yok,yok,yok,yok,yok,yok,kademe_4,iyi,bilinmiyor,bilinmiyor,50_75_m2,3_oda,yuksek_8_15_kat,1_banyo,yok,yok,yok,dusuk,yok,yok,yok,2_3_Milyon_TL_Arasi
Amasya,Merkez,Satilik,21_25_arasi,En_Ust_Kat,Kombi,bilinmiyor,yok,yok,var,yok,yok,yok,yok,yok,yok,yok,yok,yok,yok,yok,yok,yok,yok,yok,yok,yok,yok,yok,yok,yok,yok,yok,yok,yok,yok,yok,kademe_4,kotu,kotu,bilinmiyor,125_150_m2,4_oda,orta_4_7_kat,1_banyo,yok,yok,yok,dusuk,yok,yok,yok,2_3_Milyon_TL_Arasi
Kastamonu,Cide,Satilik,0,4,Kombi,bilinmiyor,yok,var,yok,yok,yok,var,var,var,var,yok,var,yok,yok,var,yok,yok,yok,yok,yok,yok,yok,var,var,yok,yok,var,yok,yok,yok,yok,kademe_4,iyi,bilinmiyor,bilinmiyor,75_100_m2,3_oda,orta_4_7_kat,1_banyo,yok,yok,yok,dusuk,yok,yuksek,yok,4_5_Milyon_TL_Arasi
Afyonkarahisar,Merkez,Satilik,31_ve_uzeri,Bahce,Soba,bilinmiyor,yok,yok,yok,yok,yok,var,var,yok,yok,yok,yok,yok,yok,yok,yok,yok,yok,yok,yok,yok,yok,yok,yok,yok,yok,var,yok,yok,yok,yok,kademe_4,bilinmiyor,bilinmiyor,bilinmiyor,125_150_m2,4_oda,bilinmiyor,1_banyo,yok,yok,yok,dusuk,orta,dusuk,yok,1_5_2_Milyon_TL_Arasi
Aksaray,Merkez,Satilik,0,4,Kombi_Dogalgaz,bilinmiyor,yok,yok,yok,var,yok,yok,var,var,yok,yok,yok,yok,yok,yok,yok,yok,yok,yok,yok,yok,yok,yok,yok,yok,yok,yok,yok,yok,yok,yok,kademe_4,normal,bilinmiyor,bilinmiyor,150_200_m2,4_oda,orta_4_7_kat,2_banyo,yok,yok,yok,dusuk,yok,yok,yok,5_7_Bucuk_Milyon_TL_Arasi
Kastamonu,Merkez,Satilik,21_25_arasi,3,Kombi,bilinmiyor,yok,var,yok,var,yok,yok,var,var,yok,yok,yok,yok,yok,yok,yok,yok,yok,yok,yok,yok,yok,yok,var,yok,yok,var,yok,yok,yok,yok,kademe_4,bilinmiyor,bilinmiyor,bilinmiyor,100_125_m2,3_oda,orta_4_7_kat,1_banyo,dusuk,yok,dusuk,orta,yuksek,dusuk,yok,3_4_Milyon_TL_Arasi
Aksaray,Merkez,Satilik,6_10_arasi,4,Kombi,bilinmiyor,yok,var,var,yok,var,yok,yok,yok,yok,yok,yok,yok,yok,yok,yok,yok,yok,yok,yok,yok,yok,yok,yok,yok,yok,yok,yok,yok,yok,yok,kademe_4,normal,iyi,bilinmiyor,300_m2_ve_ustu,6_oda,orta_4_7_kat,2_banyo,yok,yok,yok,dusuk,yok,yok,yok,5_7_Bucuk_Milyon_TL_Arasi
Afyonkarahisar,Merkez,Satilik,31_ve_uzeri,bilinmiyor,Soba,bilinmiyor,yok,var,yok,var,yok,var,var,var,var,yok,var,yok,yok,var,yok,yok,yok,yok,yok,yok,yok,yok,var,yok,yok,var,yok,yok,yok,yok,kademe_4,bilinmiyor,kotu,bilinmiyor,75_100_m2,2_oda,alcak_1_3_kat,1_banyo,yok,dusuk,yok,dusuk,yok,orta,yok,1_5_Milyon_TL_Alti
Afyonkarahisar,Merkez,Satilik,0,Ara_Kat,Kombi_Dogalgaz,bilinmiyor,yok,var,var,var,yok,yok,var,var,yok,yok,yok,yok,yok,var,yok,yok,yok,yok,yok,yok,yok,yok,var,yok,yok,var,yok,yok,yok,yok,kademe_4,iyi,normal,iyi,150_200_m2,4_oda,yuksek_8_15_kat,1_banyo,dusuk,yok,yok,orta,dusuk,yuksek,yok,2_3_Milyon_TL_Arasi
Kastamonu,Merkez,Satilik,0,4,Kombi,bilinmiyor,yok,var,var,var,yok,var,yok,var,yok,yok,var,yok,yok,var,yok,yok,yok,yok,yok,yok,yok,yok,var,yok,yok,var,yok,yok,yok,yok,kademe_4,bilinmiyor,bilinmiyor,bilinmiyor,100_125_m2,3_oda,orta_4_7_kat,1_banyo,dusuk,yok,dusuk,dusuk,orta,yuksek,yok,4_5_Milyon_TL_Arasi
Afyonkarahisar,Merkez,Satilik,6_10_arasi,4,Kombi_Dogalgaz,bilinmiyor,yok,yok,yok,yok,var,yok,var,var,yok,yok,yok,yok,yok,yok,yok,yok,yok,yok,yok,yok,yok,yok,yok,yok,yok,yok,yok,yok,yok,yok,kademe_4,kotu,bilinmiyor,bilinmiyor,50_75_m2,2_oda,orta_4_7_kat,1_banyo,yok,yok,yok,dusuk,yok,yok,yok,1_5_Milyon_TL_Alti
Elazig,Merkez,Satilik,1_5_arasi,bilinmiyor,Kombi_Dogalgaz,bilinmiyor,yok,yok,yok,yok,yok,yok,yok,yok,yok,yok,yok,yok,yok,yok,yok,yok,yok,yok,yok,yok,yok,yok,yok,yok,yok,yok,yok,var,yok,yok,kademe_4,kotu,normal,bilinmiyor,100_125_m2,3_oda,alcak_1_3_kat,1_banyo,yok,yok,yok,dusuk,yok,yok,yok,3_4_Milyon_TL_Arasi
Amasya,Merzifon,Satilik,1_5_arasi,3,Kombi,bilinmiyor,yok,var,yok,var,yok,yok,yok,var,yok,yok,yok,yok,yok,yok,yok,yok,yok,yok,yok,yok,yok,yok,yok,yok,yok,var,yok,yok,yok,yok,kademe_4,iyi,kotu,kotu,50_75_m2,2_oda,orta_4_7_kat,1_banyo,yok,yok,dusuk,dusuk,orta,yok,yok,1_5_Milyon_TL_Alti
Amasya,Merzifon,Satilik,1_5_arasi,3,Kombi,bilinmiyor,yok,var,yok,var,yok,var,yok,yok,var,yok,yok,yok,yok,yok,yok,yok,yok,yok,yok,yok,yok,yok,yok,yok,yok,yok,yok,yok,yok,yok,kademe_4,normal,normal,iyi,75_100_m2,2_oda,orta_4_7_kat,1_banyo,yok,yok,yok,dusuk,yok,yok,yok,2_3_Milyon_TL_Arasi
Afyonkarahisar,Merkez,Satilik,1_5_arasi,Ara_Kat,Kombi_Dogalgaz,bilinmiyor,yok,yok,var,var,var,yok,yok,var,yok,yok,yok,yok,yok,var,yok,yok,yok,yok,yok,yok,yok,yok,var,yok,yok,var,yok,yok,yok,yok,kademe_4,kotu,normal,iyi,0_50_m2,2_oda,orta_4_7_kat,3_banyo_ve_ustu,dusuk,yok,yok,dusuk,dusuk,orta,yok,1_5_Milyon_TL_Alti
Kastamonu,Merkez,Satilik,6_10_arasi,6,Merkezi,bilinmiyor,yok,var,var,var,yok,yok,var,yok,yok,yok,var,var,yok,yok,yok,yok,yok,yok,yok,yok,yok,yok,var,yok,yok,var,yok,yok,yok,yok,kademe_4,normal,normal,bilinmiyor,125_150_m2,4_oda,yuksek_8_15_kat,2_banyo,dusuk,yok,dusuk,dusuk,orta,yuksek,yok,4_5_Milyon_TL_Arasi
Amasya,Merzifon,Satilik,0,3,Kombi_Dogalgaz,bilinmiyor,yok,yok,yok,yok,yok,yok,yok,var,yok,yok,yok,yok,yok,yok,yok,yok,yok,yok,yok,yok,yok,yok,yok,yok,yok,yok,yok,yok,yok,yok,kademe_4,iyi,iyi,iyi,50_75_m2,2_oda,orta_4_7_kat,1_banyo,yok,yok,yok,dusuk,yok,yok,yok,1_5_2_Milyon_TL_Arasi
Amasya,Suluova,Satilik,11_15_arasi,bilinmiyor,Kombi_Dogalgaz,bilinmiyor,yok,var,yok,var,yok,yok,yok,yok,var,yok,yok,yok,yok,var,yok,yok,yok,yok,yok,yok,yok,yok,yok,yok,yok,yok,yok,yok,yok,yok,kademe_4,iyi,kotu,normal,150_200_m2,7_oda_ve_ustu,alcak_1_3_kat,bilinmiyor,dusuk,dusuk,yok,dusuk,dusuk,yuksek,yok,10_Milyon_TL_Ustu
Kastamonu,Tosya,Satilik,0,En_Ust_Kat,Yerden_Isitma,bilinmiyor,yok,yok,var,yok,yok,yok,yok,var,yok,yok,yok,yok,yok,yok,yok,yok,yok,yok,yok,yok,yok,yok,yok,yok,yok,yok,yok,yok,yok,yok,kademe_4,normal,bilinmiyor,iyi,75_100_m2,3_oda,orta_4_7_kat,1_banyo,yok,yok,yok,dusuk,dusuk,yok,yok,3_4_Milyon_TL_Arasi
Amasya,Merzifon,Satilik,6_10_arasi,5,Kombi,bilinmiyor,yok,var,var,var,yok,var,var,var,var,yok,yok,yok,yok,yok,yok,yok,yok,yok,yok,yok,yok,yok,yok,yok,yok,yok,yok,yok,yok,yok,kademe_4,normal,normal,bilinmiyor,200_300_m2,6_oda,orta_4_7_kat,1_banyo,yok,yok,yok,dusuk,yok,yok,yok,4_5_Milyon_TL_Arasi
Elazig,Merkez,Satilik,1_5_arasi,Giris,Kombi,bilinmiyor,yok,var,var,var,yok,yok,yok,yok,yok,yok,yok,yok,yok,yok,yok,yok,yok,yok,yok,yok,yok,yok,yok,yok,yok,yok,yok,yok,yok,yok,kademe_4,normal,normal,normal,125_150_m2,4_oda,yuksek_8_15_kat,2_banyo,yok,yok,yok,dusuk,yok,dusuk,yok,3_4_Milyon_TL_Arasi
Kastamonu,Merkez,Satilik,0,1,Yerden_Isitma,bilinmiyor,yok,yok,var,var,yok,yok,yok,var,yok,yok,var,yok,yok,var,yok,yok,yok,yok,yok,yok,yok,yok,yok,yok,yok,yok,yok,yok,yok,yok,kademe_4,iyi,iyi,bilinmiyor,50_75_m2,2_oda,orta_4_7_kat,1_banyo,yok,yok,dusuk,orta,yuksek,yuksek,yok,1_5_2_Milyon_TL_Arasi
Kastamonu,Merkez,Satilik,26_30_arasi,Bahce,Kombi,bilinmiyor,yok,yok,var,var,yok,yok,var,var,yok,yok,yok,yok,yok,yok,yok,yok,yok,yok,yok,yok,yok,yok,yok,yok,yok,yok,yok,yok,yok,var,kademe_4,bilinmiyor,bilinmiyor,kotu,200_300_m2,6_oda,orta_4_7_kat,1_banyo,yok,yok,yok,dusuk,yok,yok,yok,5_7_Bucuk_Milyon_TL_Arasi
Amasya,Tasova,Satilik,16_20_arasi,bilinmiyor,Soba,bilinmiyor,yok,yok,yok,yok,yok,var,var,var,var,yok,yok,yok,yok,var,yok,yok,yok,yok,yok,yok,yok,yok,var,yok,yok,var,yok,yok,yok,yok,kademe_4,bilinmiyor,bilinmiyor,bilinmiyor,200_300_m2,4_oda,alcak_1_3_kat,1_banyo,yok,yok,yok,dusuk,yok,orta,yok,1_5_Milyon_TL_Alti
Kastamonu,Merkez,Satilik,11_15_arasi,7,Kombi,bilinmiyor,yok,var,var,yok,yok,var,var,yok,var,yok,var,yok,yok,var,yok,yok,yok,yok,yok,yok,yok,yok,var,yok,yok,var,yok,yok,yok,yok,kademe_4,bilinmiyor,bilinmiyor,bilinmiyor,100_125_m2,3_oda,yuksek_8_15_kat,1_banyo,dusuk,yok,dusuk,orta,yuksek,yuksek,yok,2_3_Milyon_TL_Arasi
Amasya,Merzifon,Satilik,11_15_arasi,5,Kombi_Dogalgaz,bilinmiyor,yok,var,yok,yok,yok,var,var,var,var,yok,var,var,yok,yok,yok,yok,yok,yok,yok,yok,yok,yok,yok,yok,yok,var,yok,yok,yok,yok,kademe_4,iyi,normal,normal,150_200_m2,5_oda,orta_4_7_kat,2_banyo,yok,yok,yok,dusuk,yok,yuksek,yok,5_7_Bucuk_Milyon_TL_Arasi
Elazig,Merkez,Satilik,0,1,Kombi,bilinmiyor,yok,var,var,var,yok,yok,yok,yok,yok,yok,yok,yok,yok,yok,yok,yok,yok,yok,yok,yok,yok,yok,yok,yok,yok,yok,yok,yok,yok,yok,kademe_4,normal,normal,bilinmiyor,75_100_m2,3_oda,yuksek_8_15_kat,1_banyo,yok,yok,yok,dusuk,yok,yok,yok,2_3_Milyon_TL_Arasi
Amasya,Suluova,Satilik,6_10_arasi,bilinmiyor,Kombi_Dogalgaz,bilinmiyor,yok,var,yok,yok,yok,var,yok,yok,yok,yok,var,yok,yok,yok,yok,yok,yok,yok,yok,yok,yok,yok,yok,yok,yok,yok,yok,yok,yok,yok,kademe_4,kotu,kotu,bilinmiyor,125_150_m2,4_oda,alcak_1_3_kat,1_banyo,yok,yok,yok,dusuk,yok,orta,yok,2_3_Milyon_TL_Arasi
Amasya,Merzifon,Satilik,0,4,Yerden_Isitma,bilinmiyor,yok,var,var,var,yok,var,yok,var,var,yok,yok,yok,yok,yok,yok,yok,yok,yok,yok,yok,yok,yok,yok,yok,yok,yok,yok,yok,yok,yok,kademe_4,bilinmiyor,bilinmiyor,bilinmiyor,150_200_m2,5_oda,orta_4_7_kat,2_banyo,yok,yok,yok,dusuk,yok,yok,yok,5_7_Bucuk_Milyon_TL_Arasi
Aksaray,Merkez,Satilik,0,2,Kombi,bilinmiyor,yok,var,yok,yok,yok,var,yok,var,yok,yok,var,var,yok,var,var,yok,yok,yok,var,yok,var,yok,yok,yok,yok,var,yok,yok,yok,yok,kademe_4,bilinmiyor,bilinmiyor,bilinmiyor,100_125_m2,3_oda,orta_4_7_kat,1_banyo,dusuk,orta,orta,dusuk,orta,yuksek,yok,4_5_Milyon_TL_Arasi
Amasya,Merzifon,Satilik,0,2,Kombi,bilinmiyor,yok,yok,var,yok,yok,yok,yok,yok,yok,yok,yok,yok,yok,yok,yok,yok,yok,yok,yok,yok,yok,yok,yok,yok,yok,yok,yok,yok,yok,yok,kademe_4,kotu,kotu,normal,100_125_m2,3_oda,orta_4_7_kat,2_banyo,yok,yok,yok,dusuk,yok,yok,yok,3_4_Milyon_TL_Arasi
Elazig,Merkez,Satilik,26_30_arasi,4,Kombi_Dogalgaz,bilinmiyor,yok,yok,yok,yok,yok,yok,var,var,var,yok,yok,yok,yok,yok,yok,yok,yok,yok,yok,yok,yok,yok,yok,yok,yok,yok,yok,yok,yok,yok,kademe_4,normal,kotu,bilinmiyor,150_200_m2,4_oda,orta_4_7_kat,1_banyo,yok,yok,yok,yok,yok,yok,yok,1_5_Milyon_TL_Alti
Kastamonu,Merkez,Satilik,1_5_arasi,2,Merkezi,bilinmiyor,yok,var,var,var,var,var,yok,var,yok,yok,var,yok,yok,var,yok,yok,yok,yok,yok,yok,yok,yok,var,yok,yok,var,yok,yok,yok,yok,kademe_4,bilinmiyor,bilinmiyor,kotu,50_75_m2,3_oda,yuksek_8_15_kat,1_banyo,dusuk,yok,dusuk,orta,yuksek,yuksek,yok,2_3_Milyon_TL_Arasi
Amasya,Merkez,Satilik,0,2,Kombi,bilinmiyor,yok,var,var,var,yok,var,yok,var,yok,yok,var,var,yok,var,yok,yok,yok,yok,yok,yok,yok,yok,var,yok,yok,var,yok,yok,yok,yok,kademe_4,iyi,normal,normal,125_150_m2,4_oda,orta_4_7_kat,2_banyo,yok,yok,yok,dusuk,dusuk,yuksek,yok,5_7_Bucuk_Milyon_TL_Arasi
Amasya,Merkez,Satilik,21_25_arasi,4,Kombi_Dogalgaz,bilinmiyor,yok,var,var,yok,yok,yok,var,var,yok,yok,yok,yok,yok,yok,yok,yok,yok,yok,yok,yok,yok,yok,yok,yok,yok,var,yok,yok,yok,yok,kademe_4,iyi,normal,kotu,125_150_m2,3_oda,orta_4_7_kat,1_banyo,yok,yok,yok,dusuk,yok,orta,yok,2_3_Milyon_TL_Arasi
Sivas,Merkez,Satilik,26_30_arasi,4,Kombi,bilinmiyor,yok,var,yok,yok,var,var,yok,yok,var,yok,yok,yok,yok,yok,yok,yok,yok,yok,yok,yok,yok,yok,yok,yok,yok,var,yok,yok,yok,yok,kademe_4,normal,normal,bilinmiyor,100_125_m2,3_oda,orta_4_7_kat,1_banyo,yok,yok,yok,dusuk,orta,yok,yok,2_3_Milyon_TL_Arasi
Kirsehir,Merkez,Satilik,11_15_arasi,5,Kombi_Dogalgaz,bilinmiyor,yok,yok,yok,yok,yok,yok,var,var,var,yok,yok,yok,yok,yok,yok,yok,yok,yok,yok,yok,yok,yok,yok,yok,yok,yok,yok,yok,yok,yok,kademe_4,iyi,normal,iyi,125_150_m2,4_oda,orta_4_7_kat,1_banyo,yok,yok,yok,dusuk,yok,yok,yok,3_4_Milyon_TL_Arasi
Amasya,Merzifon,Satilik,0,3,Yerden_Isitma,bilinmiyor,yok,var,var,var,yok,var,yok,yok,yok,yok,var,yok,yok,var,yok,yok,yok,var,yok,yok,yok,yok,yok,yok,yok,yok,yok,yok,yok,yok,kademe_4,iyi,bilinmiyor,bilinmiyor,100_125_m2,3_oda,orta_4_7_kat,1_banyo,yok,yok,yok,dusuk,dusuk,orta,yok,2_3_Milyon_TL_Arasi
Amasya,Merzifon,Satilik,11_15_arasi,3,Kombi_Dogalgaz,bilinmiyor,yok,var,var,var,yok,yok,var,var,yok,yok,var,yok,yok,var,yok,yok,yok,yok,yok,yok,yok,yok,var,yok,yok,yok,yok,yok,yok,yok,kademe_4,normal,kotu,bilinmiyor,125_150_m2,4_oda,orta_4_7_kat,1_banyo,yok,yok,yok,dusuk,yok,yuksek,yok,3_4_Milyon_TL_Arasi
Elazig,Merkez,Satilik,16_20_arasi,En_Ust_Kat,Kombi_Dogalgaz,bilinmiyor,yok,yok,yok,yok,yok,yok,var,var,var,yok,yok,yok,yok,yok,yok,yok,yok,yok,yok,yok,yok,yok,yok,yok,yok,yok,yok,yok,yok,yok,kademe_4,iyi,normal,kotu,150_200_m2,4_oda,orta_4_7_kat,bilinmiyor,yok,yok,yok,dusuk,yok,yok,yok,1_5_2_Milyon_TL_Arasi
Amasya,Merzifon,Satilik,1_5_arasi,bilinmiyor,Soba,bilinmiyor,yok,var,yok,yok,yok,var,var,var,yok,yok,yok,yok,yok,yok,yok,yok,yok,yok,yok,yok,yok,yok,var,yok,yok,var,var,yok,yok,yok,kademe_4,kotu,kotu,bilinmiyor,200_300_m2,7_oda_ve_ustu,orta_4_7_kat,1_banyo,yok,dusuk,yok,dusuk,dusuk,dusuk,yok,3_4_Milyon_TL_Arasi
Sivas,Merkez,Satilik,16_20_arasi,3,Kombi,bilinmiyor,yok,var,yok,var,yok,var,var,yok,yok,yok,yok,yok,yok,yok,yok,yok,yok,yok,yok,yok,yok,yok,yok,yok,yok,yok,var,yok,yok,yok,kademe_4,iyi,normal,bilinmiyor,200_300_m2,6_oda,orta_4_7_kat,2_banyo,yok,yok,yok,dusuk,yuksek,yok,yok,3_4_Milyon_TL_Arasi
Amasya,Merzifon,Satilik,0,2,Yerden_Isitma,bilinmiyor,yok,var,yok,var,yok,var,var,yok,yok,yok,var,yok,yok,var,yok,yok,yok,yok,yok,yok,yok,yok,var,yok,yok,var,yok,yok,yok,yok,kademe_4,iyi,iyi,iyi,100_125_m2,3_oda,orta_4_7_kat,1_banyo,dusuk,yok,dusuk,dusuk,yuksek,yuksek,yok,3_4_Milyon_TL_Arasi
Amasya,Merkez,Satilik,31_ve_uzeri,bilinmiyor,Kombi,bilinmiyor,yok,var,yok,yok,yok,yok,yok,var,var,yok,yok,yok,yok,yok,yok,yok,yok,yok,yok,yok,yok,yok,var,yok,yok,var,yok,yok,yok,yok,kademe_4,normal,kotu,bilinmiyor,200_300_m2,4_oda,alcak_1_3_kat,1_banyo,yok,yok,yok,dusuk,yok,dusuk,yok,10_Milyon_TL_Ustu
Amasya,Merzifon,Satilik,0,5,Kombi_Dogalgaz,bilinmiyor,yok,yok,var,yok,yok,var,yok,yok,yok,yok,var,yok,yok,yok,yok,yok,yok,yok,yok,yok,yok,yok,yok,yok,yok,var,yok,yok,yok,yok,kademe_4,iyi,normal,iyi,75_100_m2,2_oda,orta_4_7_kat,1_banyo,dusuk,yok,yok,dusuk,yok,yuksek,yok,2_3_Milyon_TL_Arasi
Amasya,Merzifon,Satilik,21_25_arasi,1,Kombi_Dogalgaz,bilinmiyor,yok,yok,var,var,yok,var,var,var,yok,yok,yok,yok,yok,yok,yok,yok,yok,yok,yok,yok,yok,yok,yok,yok,yok,yok,yok,yok,yok,yok,kademe_4,normal,kotu,bilinmiyor,150_200_m2,5_oda,orta_4_7_kat,1_banyo,yok,yok,yok,dusuk,yok,yok,yok,2_3_Milyon_TL_Arasi
Kirsehir,Merkez,Satilik,0,Yuksek_Giris,Kombi,bilinmiyor,yok,yok,var,yok,yok,yok,yok,yok,yok,yok,yok,yok,yok,yok,yok,yok,yok,yok,yok,yok,yok,yok,yok,yok,yok,yok,yok,yok,yok,yok,kademe_4,kotu,normal,iyi,0_50_m2,2_oda,orta_4_7_kat,1_banyo,yok,yok,yok,dusuk,yok,yok,yok,1_5_2_Milyon_TL_Arasi
Aksaray,Merkez,Satilik,0,3,Kombi_Dogalgaz,bilinmiyor,yok,yok,var,yok,yok,yok,yok,var,yok,yok,yok,yok,yok,yok,yok,yok,yok,yok,yok,yok,yok,yok,yok,yok,yok,var,yok,yok,yok,yok,kademe_4,iyi,iyi,normal,150_200_m2,4_oda,orta_4_7_kat,1_banyo,dusuk,yok,yok,dusuk,yok,yok,yok,5_7_Bucuk_Milyon_TL_Arasi
Kastamonu,Merkez,Satilik,6_10_arasi,Bodrum,Kombi,bilinmiyor,yok,yok,yok,var,var,yok,yok,yok,yok,yok,var,yok,yok,yok,yok,yok,yok,yok,yok,yok,yok,yok,yok,yok,yok,yok,yok,yok,yok,yok,kademe_4,normal,kotu,bilinmiyor,0_50_m2,2_oda,orta_4_7_kat,1_banyo,yok,yok,yok,dusuk,orta,yuksek,yok,1_5_Milyon_TL_Alti
Kastamonu,Merkez,Satilik,26_30_arasi,Giris,Kombi,bilinmiyor,yok,var,var,var,yok,var,yok,yok,var,yok,var,yok,yok,yok,yok,yok,yok,yok,yok,yok,yok,yok,yok,yok,yok,var,yok,var,yok,yok,kademe_4,bilinmiyor,kotu,bilinmiyor,125_150_m2,4_oda,orta_4_7_kat,1_banyo,dusuk,yok,dusuk,orta,yuksek,orta,yok,3_4_Milyon_TL_Arasi
Kirsehir,Merkez,Satilik,0,3,Kombi_Dogalgaz,bilinmiyor,yok,yok,var,yok,yok,yok,yok,var,yok,yok,var,yok,yok,yok,yok,yok,yok,yok,yok,yok,yok,yok,yok,yok,yok,yok,yok,yok,yok,yok,kademe_4,iyi,bilinmiyor,bilinmiyor,50_75_m2,2_oda,orta_4_7_kat,1_banyo,yok,yok,yok,dusuk,orta,orta,yok,2_3_Milyon_TL_Arasi
Amasya,Merzifon,Satilik,21_25_arasi,3,Kombi_Dogalgaz,bilinmiyor,yok,var,var,yok,yok,yok,yok,var,var,yok,yok,yok,yok,yok,yok,yok,yok,yok,yok,yok,yok,yok,yok,yok,yok,yok,yok,yok,yok,yok,kademe_4,normal,kotu,kotu,125_150_m2,4_oda,orta_4_7_kat,1_banyo,yok,yok,yok,dusuk,yok,yok,yok,2_3_Milyon_TL_Arasi
Amasya,Merzifon,Satilik,11_15_arasi,1,Kombi,bilinmiyor,yok,var,var,var,yok,yok,yok,yok,yok,yok,yok,yok,yok,yok,yok,yok,yok,yok,yok,yok,yok,yok,yok,yok,yok,var,yok,yok,yok,yok,kademe_4,kotu,normal,kotu,100_125_m2,3_oda,orta_4_7_kat,1_banyo,yok,yok,dusuk,dusuk,orta,dusuk,yok,3_4_Milyon_TL_Arasi
Afyonkarahisar,Merkez,Satilik,6_10_arasi,3,Kombi_Dogalgaz,bilinmiyor,yok,var,var,var,yok,yok,var,var,yok,yok,yok,yok,yok,var,yok,yok,yok,yok,yok,yok,yok,yok,yok,yok,yok,var,yok,yok,yok,yok,kademe_4,kotu,normal,normal,100_125_m2,4_oda,orta_4_7_kat,1_banyo,dusuk,yok,yok,orta,dusuk,yuksek,yok,4_5_Milyon_TL_Arasi
Amasya,Merkez,Satilik,16_20_arasi,Yuksek_Giris,Soba,bilinmiyor,yok,var,yok,var,yok,var,var,var,yok,yok,var,yok,yok,yok,yok,yok,yok,yok,yok,yok,yok,yok,yok,yok,yok,var,yok,yok,yok,yok,kademe_4,kotu,bilinmiyor,kotu,200_300_m2,5_oda,alcak_1_3_kat,2_banyo,yok,yok,dusuk,dusuk,dusuk,dusuk,yok,2_3_Milyon_TL_Arasi
Amasya,Merkez,Satilik,1_5_arasi,5,Kombi,bilinmiyor,yok,var,yok,var,var,var,var,var,var,yok,var,yok,yok,var,yok,yok,yok,yok,yok,yok,yok,yok,yok,yok,yok,var,yok,yok,yok,yok,kademe_4,kotu,normal,normal,75_100_m2,2_oda,yuksek_8_15_kat,1_banyo,dusuk,yok,dusuk,orta,yuksek,yuksek,yok,2_3_Milyon_TL_Arasi
Aksaray,Merkez,Satilik,0,Yuksek_Giris,Kombi,bilinmiyor,yok,var,var,yok,yok,yok,var,yok,yok,yok,var,yok,yok,yok,yok,yok,yok,yok,yok,yok,yok,yok,yok,yok,yok,var,yok,yok,yok,yok,kademe_4,normal,bilinmiyor,bilinmiyor,125_150_m2,4_oda,orta_4_7_kat,1_banyo,yok,yok,yok,orta,yuksek,yuksek,yok,3_4_Milyon_TL_Arasi
Amasya,Merzifon,Satilik,1_5_arasi,3,Yerden_Isitma,bilinmiyor,yok,var,yok,var,yok,yok,var,var,yok,yok,yok,yok,yok,yok,yok,yok,yok,yok,yok,yok,yok,yok,yok,yok,yok,yok,yok,yok,yok,yok,kademe_4,bilinmiyor,bilinmiyor,iyi,50_75_m2,2_oda,orta_4_7_kat,1_banyo,yok,yok,yok,dusuk,yok,yok,yok,1_5_2_Milyon_TL_Arasi
Kastamonu,Merkez,Satilik,1_5_arasi,Bahce,Merkezi,bilinmiyor,yok,var,var,var,yok,var,yok,var,yok,yok,var,var,yok,var,yok,yok,yok,yok,var,yok,yok,yok,var,yok,yok,var,yok,var,yok,yok,kademe_4,iyi,bilinmiyor,bilinmiyor,200_300_m2,4_oda,yuksek_8_15_kat,2_banyo,dusuk,dusuk,dusuk,orta,yuksek,yuksek,yok,7_Bucuk_10_Milyon_TL_Arasi
Elazig,Merkez,Satilik,1_5_arasi,Ara_Kat,Kombi_Dogalgaz,bilinmiyor,yok,var,var,var,yok,yok,var,yok,yok,yok,var,yok,yok,yok,yok,yok,yok,yok,yok,yok,yok,yok,yok,yok,yok,var,yok,yok,yok,yok,kademe_4,normal,bilinmiyor,normal,100_125_m2,3_oda,orta_4_7_kat,1_banyo,yok,yok,yok,orta,orta,yuksek,yok,2_3_Milyon_TL_Arasi
Aksaray,Merkez,Satilik,1_5_arasi,bilinmiyor,Soba,bilinmiyor,yok,yok,yok,yok,yok,var,var,var,yok,yok,yok,yok,yok,yok,yok,yok,yok,yok,yok,yok,yok,yok,yok,yok,yok,yok,yok,yok,yok,yok,kademe_4,bilinmiyor,bilinmiyor,bilinmiyor,100_125_m2,3_oda,alcak_1_3_kat,1_banyo,yok,yok,yok,dusuk,yok,yok,yok,3_4_Milyon_TL_Arasi
Elazig,Merkez,Satilik,1_5_arasi,Yuksek_Giris,Merkezi,bilinmiyor,yok,yok,yok,yok,yok,yok,yok,yok,yok,yok,yok,yok,yok,yok,yok,yok,yok,yok,yok,yok,yok,yok,yok,yok,yok,yok,yok,yok,yok,yok,kademe_4,iyi,normal,bilinmiyor,100_125_m2,4_oda,orta_4_7_kat,1_banyo,yok,yok,yok,dusuk,yok,yok,yok,2_3_Milyon_TL_Arasi
Aksaray,Merkez,Satilik,1_5_arasi,Yuksek_Giris,Kombi,bilinmiyor,yok,var,var,var,yok,yok,yok,yok,yok,yok,yok,yok,yok,yok,yok,yok,yok,yok,yok,yok,yok,yok,yok,yok,yok,yok,yok,yok,yok,yok,kademe_4,normal,iyi,normal,150_200_m2,4_oda,yuksek_8_15_kat,1_banyo,yok,yok,yok,dusuk,yok,yok,yok,3_4_Milyon_TL_Arasi
Elazig,Merkez,Satilik,16_20_arasi,2,Kombi,bilinmiyor,yok,var,var,var,yok,yok,yok,var,var,yok,yok,yok,yok,yok,yok,yok,yok,yok,yok,yok,yok,yok,yok,yok,yok,yok,yok,yok,yok,yok,kademe_4,iyi,normal,kotu,150_200_m2,4_oda,orta_4_7_kat,2_banyo,yok,yok,yok,dusuk,yok,yok,yok,2_3_Milyon_TL_Arasi
Kastamonu,Taskopru,Satilik,1_5_arasi,Bahce,Kat_Kaloriferi,bilinmiyor,yok,var,yok,var,yok,var,var,var,var,yok,var,var,yok,var,yok,yok,yok,yok,yok,yok,yok,yok,var,yok,yok,var,var,yok,yok,yok,kademe_4,bilinmiyor,bilinmiyor,bilinmiyor,300_m2_ve_ustu,7_oda_ve_ustu,alcak_1_3_kat,3_banyo_ve_ustu,yok,dusuk,yok,dusuk,yok,yuksek,yok,10_Milyon_TL_Ustu
Artvin,Arhavi,Satilik,6_10_arasi,1,Kombi,bilinmiyor,yok,var,var,var,yok,yok,yok,yok,yok,yok,yok,yok,yok,yok,yok,yok,yok,yok,var,yok,yok,yok,var,yok,yok,var,yok,yok,yok,yok,kademe_4,normal,kotu,bilinmiyor,150_200_m2,4_oda,yuksek_8_15_kat,1_banyo,dusuk,yok,yok,dusuk,orta,yok,yok,3_4_Milyon_TL_Arasi
Afyonkarahisar,Emirdag,Satilik,31_ve_uzeri,Bahce,Soba,bilinmiyor,yok,var,yok,yok,yok,yok,var,var,yok,yok,yok,yok,yok,yok,yok,yok,yok,yok,yok,yok,yok,yok,var,yok,yok,yok,yok,yok,yok,yok,kademe_4,bilinmiyor,kotu,bilinmiyor,100_125_m2,3_oda,bilinmiyor,1_banyo,yok,yok,yok,dusuk,yok,dusuk,yok,1_5_2_Milyon_TL_Arasi
Amasya,Merzifon,Satilik,0,Ara_Kat,Kombi_Dogalgaz,bilinmiyor,yok,yok,var,var,yok,var,var,yok,yok,yok,var,yok,yok,yok,yok,yok,yok,yok,yok,yok,yok,yok,yok,yok,yok,var,yok,yok,yok,yok,kademe_4,iyi,bilinmiyor,bilinmiyor,50_75_m2,2_oda,orta_4_7_kat,1_banyo,dusuk,yok,yok,dusuk,orta,yuksek,yok,3_4_Milyon_TL_Arasi
Amasya,Merkez,Satilik,0,3,Yerden_Isitma,bilinmiyor,yok,var,var,var,yok,yok,yok,var,yok,yok,var,yok,yok,var,yok,yok,yok,yok,yok,yok,yok,yok,yok,yok,yok,var,yok,yok,yok,yok,kademe_4,normal,bilinmiyor,bilinmiyor,75_100_m2,3_oda,orta_4_7_kat,1_banyo,dusuk,yok,yok,orta,orta,yuksek,yok,3_4_Milyon_TL_Arasi
Kastamonu,Merkez,Satilik,0,4,Kombi_Dogalgaz,bilinmiyor,yok,yok,yok,var,yok,var,yok,var,yok,yok,yok,yok,yok,yok,yok,yok,yok,yok,yok,yok,yok,yok,yok,yok,yok,yok,yok,yok,yok,yok,kademe_4,normal,bilinmiyor,normal,50_75_m2,2_oda,orta_4_7_kat,1_banyo,yok,yok,yok,dusuk,yok,yok,yok,2_3_Milyon_TL_Arasi
Afyonkarahisar,Merkez,Satilik,0,Bahce,isitma_yok,bilinmiyor,yok,yok,yok,var,yok,var,var,var,var,yok,var,yok,yok,yok,yok,yok,yok,yok,yok,yok,yok,yok,var,yok,yok,yok,var,yok,yok,yok,kademe_4,iyi,kotu,normal,200_300_m2,6_oda,alcak_1_3_kat,2_banyo,yok,yok,yok,dusuk,dusuk,dusuk,yok,5_7_Bucuk_Milyon_TL_Arasi
Afyonkarahisar,Sultandagi,Satilik,21_25_arasi,bilinmiyor,Soba,bilinmiyor,yok,yok,yok,yok,yok,yok,yok,yok,yok,yok,yok,yok,yok,yok,yok,yok,yok,yok,yok,yok,yok,yok,yok,yok,yok,yok,yok,yok,yok,yok,kademe_4,kotu,bilinmiyor,bilinmiyor,50_75_m2,2_oda,alcak_1_3_kat,bilinmiyor,yok,yok,yok,dusuk,yok,yok,yok,1_5_2_Milyon_TL_Arasi
Amasya,Merzifon,Satilik,0,Ara_Kat,Kombi_Dogalgaz,bilinmiyor,yok,yok,var,yok,yok,yok,yok,yok,yok,yok,var,yok,yok,yok,yok,yok,yok,yok,yok,yok,yok,yok,var,yok,yok,var,yok,yok,yok,yok,kademe_4,kotu,bilinmiyor,bilinmiyor,100_125_m2,3_oda,orta_4_7_kat,1_banyo,dusuk,yok,yok,dusuk,dusuk,yuksek,yok,2_3_Milyon_TL_Arasi
Artvin,Merkez,Satilik,6_10_arasi,2,Kombi,bilinmiyor,yok,var,yok,var,yok,yok,yok,yok,yok,yok,yok,yok,yok,yok,yok,yok,yok,yok,yok,yok,yok,yok,yok,yok,yok,yok,yok,yok,yok,yok,kademe_4,normal,bilinmiyor,kotu,300_m2_ve_ustu,7_oda_ve_ustu,orta_4_7_kat,2_banyo,yok,yok,yok,dusuk,yok,yok,yok,10_Milyon_TL_Ustu
Afyonkarahisar,Merkez,Satilik,26_30_arasi,1,Kombi_Dogalgaz,bilinmiyor,yok,var,yok,var,yok,yok,var,yok,yok,yok,yok,yok,yok,yok,yok,yok,yok,yok,yok,yok,yok,yok,yok,yok,yok,var,yok,yok,yok,yok,kademe_4,kotu,kotu,normal,75_100_m2,3_oda,orta_4_7_kat,1_banyo,yok,yok,yok,dusuk,orta,yok,yok,3_4_Milyon_TL_Arasi
Aksaray,Merkez,Satilik,1_5_arasi,2,Kombi,bilinmiyor,yok,var,var,var,yok,yok,yok,yok,yok,yok,yok,yok,yok,yok,yok,yok,yok,yok,yok,yok,yok,yok,yok,yok,yok,yok,yok,yok,yok,yok,kademe_4,normal,bilinmiyor,iyi,100_125_m2,3_oda,orta_4_7_kat,1_banyo,yok,yok,yok,dusuk,yok,dusuk,yok,3_4_Milyon_TL_Arasi
Afyonkarahisar,Merkez,Satilik,16_20_arasi,2,Jeotermal,bilinmiyor,yok,var,yok,yok,yok,var,yok,var,yok,yok,var,yok,yok,yok,yok,yok,yok,yok,yok,yok,yok,yok,yok,yok,yok,yok,yok,yok,yok,yok,kademe_4,iyi,kotu,bilinmiyor,100_125_m2,4_oda,orta_4_7_kat,1_banyo,yok,yok,dusuk,orta,orta,yuksek,yok,4_5_Milyon_TL_Arasi
Kastamonu,Bozkurt,Satilik,6_10_arasi,4,Kombi,bilinmiyor,yok,var,var,var,var,yok,var,var,yok,yok,var,yok,yok,var,yok,yok,yok,yok,yok,yok,yok,yok,yok,yok,yok,var,yok,yok,yok,yok,kademe_4,kotu,kotu,bilinmiyor,100_125_m2,3_oda,orta_4_7_kat,1_banyo,dusuk,yok,dusuk,dusuk,yuksek,yuksek,yok,3_4_Milyon_TL_Arasi
Amasya,Merzifon,Satilik,0,5,Yerden_Isitma,bilinmiyor,yok,var,var,var,yok,yok,yok,var,var,yok,var,yok,yok,var,yok,yok,yok,yok,yok,yok,yok,yok,yok,yok,yok,var,yok,yok,yok,yok,kademe_4,bilinmiyor,normal,kotu,75_100_m2,2_oda,orta_4_7_kat,1_banyo,dusuk,yok,yok,yok,dusuk,yuksek,yok,2_3_Milyon_TL_Arasi
Aksaray,Merkez,Satilik,0,2,Kombi,bilinmiyor,yok,var,var,yok,var,yok,yok,yok,yok,yok,yok,yok,yok,yok,yok,yok,yok,yok,yok,yok,yok,yok,yok,yok,yok,yok,yok,yok,yok,yok,kademe_4,bilinmiyor,iyi,bilinmiyor,0_50_m2,2_oda,orta_4_7_kat,1_banyo,yok,yok,yok,yok,yok,dusuk,yok,2_3_Milyon_TL_Arasi
Amasya,Merkez,Satilik,6_10_arasi,3,Kombi,bilinmiyor,yok,var,var,yok,yok,yok,yok,var,var,yok,var,yok,yok,yok,yok,yok,yok,yok,yok,yok,yok,yok,yok,yok,yok,yok,yok,yok,yok,yok,kademe_4,normal,normal,normal,100_125_m2,3_oda,orta_4_7_kat,1_banyo,yok,yok,dusuk,dusuk,orta,dusuk,yok,3_4_Milyon_TL_Arasi
Afyonkarahisar,Merkez,Satilik,16_20_arasi,3,Kombi_Dogalgaz,bilinmiyor,yok,var,yok,yok,yok,yok,yok,yok,yok,yok,var,yok,yok,yok,yok,yok,yok,yok,yok,yok,yok,yok,yok,yok,yok,yok,yok,yok,yok,yok,kademe_4,iyi,kotu,kotu,125_150_m2,4_oda,orta_4_7_kat,1_banyo,yok,yok,yok,dusuk,yok,orta,yok,3_4_Milyon_TL_Arasi
Aksaray,Merkez,Satilik,1_5_arasi,3,Kombi,bilinmiyor,yok,var,yok,yok,var,yok,var,yok,var,yok,var,var,yok,var,var,yok,yok,yok,yok,yok,yok,yok,var,yok,yok,var,var,yok,yok,yok,kademe_4,iyi,bilinmiyor,bilinmiyor,75_100_m2,2_oda,orta_4_7_kat,1_banyo,dusuk,orta,orta,orta,yuksek,yuksek,yok,2_3_Milyon_TL_Arasi
Amasya,Merzifon,Satilik,26_30_arasi,3,Soba,bilinmiyor,yok,var,yok,yok,yok,yok,yok,var,var,yok,yok,yok,yok,yok,yok,yok,yok,yok,yok,yok,yok,yok,yok,yok,yok,yok,yok,yok,yok,yok,kademe_4,kotu,normal,bilinmiyor,75_100_m2,3_oda,orta_4_7_kat,1_banyo,yok,yok,yok,dusuk,yok,yok,yok,1_5_Milyon_TL_Alti
Aksaray,Merkez,Satilik,16_20_arasi,1,Kombi_Dogalgaz,bilinmiyor,yok,var,var,var,yok,yok,yok,yok,var,yok,yok,var,yok,yok,yok,yok,yok,yok,yok,yok,yok,yok,yok,yok,yok,var,yok,yok,yok,yok,kademe_4,kotu,bilinmiyor,kotu,150_200_m2,4_oda,orta_4_7_kat,2_banyo,dusuk,yok,yok,dusuk,dusuk,orta,yok,3_4_Milyon_TL_Arasi
Amasya,Merzifon,Satilik,21_25_arasi,2,Kombi_Dogalgaz,bilinmiyor,yok,yok,yok,yok,yok,yok,var,var,yok,yok,yok,yok,yok,yok,yok,yok,yok,yok,yok,yok,yok,yok,yok,yok,yok,yok,yok,yok,yok,yok,kademe_4,normal,bilinmiyor,kotu,125_150_m2,3_oda,orta_4_7_kat,1_banyo,yok,yok,yok,dusuk,yok,yok,yok,2_3_Milyon_TL_Arasi
Afyonkarahisar,Ihsaniye,Satilik,21_25_arasi,bilinmiyor,Jeotermal,bilinmiyor,yok,var,yok,var,var,var,var,var,var,yok,yok,yok,yok,yok,yok,yok,yok,yok,yok,yok,yok,yok,yok,yok,yok,yok,yok,yok,yok,var,kademe_4,kotu,bilinmiyor,kotu,300_m2_ve_ustu,6_oda,alcak_1_3_kat,2_banyo,yok,yok,yok,dusuk,yok,yok,yok,3_4_Milyon_TL_Arasi
Sivas,Gurun,Satilik,11_15_arasi,Zemin,Kombi_Dogalgaz,bilinmiyor,yok,var,var,yok,var,yok,yok,var,var,yok,var,yok,yok,var,yok,yok,yok,var,yok,yok,yok,yok,var,yok,yok,var,yok,yok,yok,yok,kademe_4,normal,normal,bilinmiyor,75_100_m2,4_oda,yuksek_8_15_kat,1_banyo,dusuk,yok,yok,dusuk,orta,yuksek,yok,3_4_Milyon_TL_Arasi
Amasya,Merzifon,Satilik,0,2,Kombi_Dogalgaz,bilinmiyor,yok,var,var,yok,yok,yok,var,var,var,yok,var,yok,yok,yok,yok,yok,yok,yok,yok,yok,yok,yok,yok,yok,yok,yok,yok,yok,yok,yok,kademe_4,bilinmiyor,iyi,bilinmiyor,125_150_m2,4_oda,orta_4_7_kat,1_banyo,dusuk,yok,yok,dusuk,yok,yuksek,yok,4_5_Milyon_TL_Arasi
Aksaray,Merkez,Satilik,0,5,Kombi,bilinmiyor,yok,var,var,yok,yok,yok,yok,yok,yok,yok,yok,yok,yok,yok,yok,yok,yok,yok,yok,yok,yok,yok,yok,yok,yok,yok,yok,yok,yok,yok,kademe_4,iyi,normal,bilinmiyor,150_200_m2,4_oda,orta_4_7_kat,1_banyo,yok,yok,yok,dusuk,dusuk,yok,yok,5_7_Bucuk_Milyon_TL_Arasi
Aksaray,Merkez,Satilik,0,3,Yerden_Isitma,bilinmiyor,yok,var,var,var,yok,var,var,var,yok,yok,yok,yok,yok,yok,yok,yok,yok,yok,yok,yok,yok,yok,yok,yok,yok,yok,yok,yok,yok,yok,kademe_4,iyi,iyi,bilinmiyor,150_200_m2,4_oda,orta_4_7_kat,2_banyo,yok,yok,yok,dusuk,yok,yok,yok,5_7_Bucuk_Milyon_TL_Arasi
Elazig,Merkez,Satilik,6_10_arasi,1,Kombi,bilinmiyor,yok,var,var,yok,yok,yok,var,var,var,yok,var,var,yok,var,yok,yok,yok,yok,yok,yok,yok,yok,yok,yok,yok,var,yok,yok,yok,yok,kademe_4,bilinmiyor,kotu,bilinmiyor,150_200_m2,4_oda,orta_4_7_kat,2_banyo,yok,yok,dusuk,dusuk,orta,dusuk,yok,3_4_Milyon_TL_Arasi
Kirsehir,Merkez,Satilik,31_ve_uzeri,Ara_Kat,Kombi_Dogalgaz,bilinmiyor,yok,yok,yok,yok,yok,yok,var,var,var,yok,yok,yok,yok,yok,yok,yok,yok,yok,yok,yok,yok,yok,yok,yok,yok,yok,yok,yok,yok,yok,kademe_4,kotu,bilinmiyor,kotu,125_150_m2,4_oda,orta_4_7_kat,1_banyo,yok,yok,yok,dusuk,yok,yok,yok,1_5_2_Milyon_TL_Arasi
Aksaray,Merkez,Satilik,0,En_Ust_Kat,Yerden_Isitma,bilinmiyor,yok,var,var,var,yok,yok,yok,var,yok,yok,var,yok,yok,var,yok,yok,yok,yok,yok,yok,yok,yok,yok,yok,yok,var,yok,yok,yok,yok,kademe_4,iyi,bilinmiyor,bilinmiyor,100_125_m2,3_oda,orta_4_7_kat,1_banyo,dusuk,yok,yok,dusuk,yok,yuksek,yok,4_5_Milyon_TL_Arasi
Afyonkarahisar,Merkez,Satilik,0,2,Kombi,bilinmiyor,yok,var,var,var,yok,yok,var,var,yok,yok,var,var,yok,yok,yok,yok,yok,yok,yok,yok,yok,yok,yok,yok,yok,var,yok,yok,yok,yok,kademe_4,normal,iyi,kotu,150_200_m2,5_oda,yuksek_8_15_kat,2_banyo,yok,yok,dusuk,orta,dusuk,yuksek,yok,7_Bucuk_10_Milyon_TL_Arasi
Aksaray,Merkez,Satilik,0,3,Kombi,bilinmiyor,yok,var,var,var,yok,var,var,var,var,yok,yok,yok,yok,yok,yok,yok,yok,yok,yok,yok,yok,yok,yok,yok,yok,yok,yok,yok,yok,yok,kademe_4,iyi,bilinmiyor,kotu,100_125_m2,3_oda,yuksek_8_15_kat,1_banyo,yok,yok,yok,dusuk,yok,yok,yok,4_5_Milyon_TL_Arasi
Amasya,Merkez,Satilik,16_20_arasi,bilinmiyor,Soba,bilinmiyor,yok,var,yok,var,yok,var,var,var,var,yok,yok,yok,yok,yok,yok,yok,yok,yok,yok,yok,yok,yok,yok,yok,yok,var,yok,var,yok,yok,kademe_4,bilinmiyor,bilinmiyor,bilinmiyor,300_m2_ve_ustu,6_oda,alcak_1_3_kat,1_banyo,yok,yok,yok,dusuk,yok,dusuk,yok,4_5_Milyon_TL_Arasi
Amasya,Merkez,Satilik,16_20_arasi,bilinmiyor,Kombi_Dogalgaz,bilinmiyor,yok,var,yok,yok,yok,yok,var,yok,yok,yok,var,yok,yok,var,yok,yok,yok,yok,yok,yok,yok,yok,yok,yok,yok,var,yok,yok,yok,var,kademe_4,bilinmiyor,bilinmiyor,bilinmiyor,150_200_m2,5_oda,orta_4_7_kat,1_banyo,yok,yok,dusuk,dusuk,yok,orta,yok,10_Milyon_TL_Ustu
Aksaray,Merkez,Satilik,0,4,Kombi_Dogalgaz,bilinmiyor,yok,var,var,yok,yok,var,var,var,yok,yok,yok,yok,yok,yok,yok,yok,yok,yok,yok,yok,yok,yok,yok,yok,yok,yok,yok,yok,yok,yok,kademe_4,kotu,bilinmiyor,kotu,100_125_m2,3_oda,yuksek_8_15_kat,bilinmiyor,yok,yok,yok,yok,yok,yok,yok,3_4_Milyon_TL_Arasi
Kastamonu,Inebolu,Satilik,6_10_arasi,Yuksek_Giris,Kombi,bilinmiyor,yok,var,yok,var,yok,yok,var,var,var,yok,var,var,yok,var,yok,yok,yok,yok,yok,yok,yok,yok,yok,yok,yok,var,yok,yok,yok,yok,kademe_4,bilinmiyor,normal,bilinmiyor,100_125_m2,3_oda,orta_4_7_kat,2_banyo,dusuk,yok,yok,orta,orta,yuksek,yok,3_4_Milyon_TL_Arasi
Aksaray,Merkez,Satilik,16_20_arasi,Ara_Kat,Yerden_Isitma,bilinmiyor,yok,var,var,yok,yok,var,var,var,yok,yok,var,var,yok,var,yok,yok,yok,yok,yok,yok,yok,yok,yok,yok,yok,yok,yok,yok,yok,yok,kademe_4,iyi,normal,bilinmiyor,200_300_m2,5_oda,orta_4_7_kat,2_banyo,dusuk,dusuk,yok,dusuk,yok,yuksek,yok,4_5_Milyon_TL_Arasi
Kastamonu,Merkez,Satilik,21_25_arasi,Bodrum,Kombi,bilinmiyor,yok,yok,yok,yok,yok,yok,yok,yok,yok,yok,yok,yok,yok,yok,yok,yok,yok,yok,yok,yok,yok,yok,yok,yok,yok,yok,yok,yok,yok,yok,kademe_4,kotu,bilinmiyor,bilinmiyor,125_150_m2,4_oda,yuksek_8_15_kat,1_banyo,yok,yok,yok,dusuk,yok,yok,yok,2_3_Milyon_TL_Arasi
Kirsehir,Merkez,Satilik,0,Yuksek_Giris,Kombi,bilinmiyor,yok,var,var,yok,yok,yok,yok,yok,yok,yok,yok,yok,yok,yok,yok,yok,yok,yok,yok,yok,yok,yok,yok,yok,yok,yok,yok,yok,yok,yok,kademe_4,iyi,normal,kotu,125_150_m2,4_oda,orta_4_7_kat,1_banyo,yok,yok,yok,dusuk,yok,yok,yok,3_4_Milyon_TL_Arasi
Amasya,Merkez,Satilik,0,Zemin,Kombi_Dogalgaz,bilinmiyor,yok,var,var,var,yok,yok,var,yok,var,yok,yok,yok,yok,yok,yok,yok,yok,yok,yok,yok,yok,yok,yok,yok,yok,yok,yok,yok,yok,yok,kademe_4,kotu,bilinmiyor,kotu,50_75_m2,2_oda,orta_4_7_kat,1_banyo,dusuk,yok,yok,dusuk,dusuk,orta,yok,2_3_Milyon_TL_Arasi
Kastamonu,Merkez,Satilik,1_5_arasi,Bahce,Kat_Kaloriferi,bilinmiyor,yok,var,yok,yok,yok,var,var,var,var,yok,yok,yok,yok,yok,yok,yok,yok,yok,yok,yok,yok,yok,var,yok,yok,var,yok,yok,yok,yok,kademe_4,bilinmiyor,bilinmiyor,bilinmiyor,150_200_m2,3_oda,alcak_1_3_kat,2_banyo,yok,yok,yok,dusuk,dusuk,orta,yok,10_Milyon_TL_Ustu
Amasya,Merkez,Satilik,16_20_arasi,2,Kombi,bilinmiyor,yok,var,yok,var,yok,yok,yok,yok,yok,yok,var,yok,yok,var,yok,yok,yok,yok,yok,yok,yok,yok,yok,yok,yok,yok,yok,yok,yok,yok,kademe_4,normal,bilinmiyor,bilinmiyor,150_200_m2,4_oda,orta_4_7_kat,1_banyo,yok,yok,yok,dusuk,orta,orta,yok,3_4_Milyon_TL_Arasi
Amasya,Merzifon,Satilik,6_10_arasi,2,Kombi,bilinmiyor,yok,var,yok,yok,yok,var,var,var,yok,yok,var,yok,yok,yok,yok,yok,yok,yok,yok,yok,yok,yok,yok,yok,yok,var,yok,yok,yok,yok,kademe_4,kotu,normal,normal,50_75_m2,2_oda,orta_4_7_kat,1_banyo,yok,yok,dusuk,dusuk,yuksek,yuksek,yok,1_5_Milyon_TL_Alti
Kastamonu,Inebolu,Satilik,6_10_arasi,9,Kombi_Dogalgaz,bilinmiyor,yok,yok,yok,yok,yok,yok,yok,yok,yok,yok,yok,yok,yok,yok,yok,yok,yok,yok,yok,yok,yok,yok,yok,yok,yok,yok,yok,yok,yok,yok,kademe_4,normal,bilinmiyor,bilinmiyor,150_200_m2,5_oda,yuksek_8_15_kat,3_banyo_ve_ustu,yok,yok,yok,dusuk,yok,yok,yok,5_7_Bucuk_Milyon_TL_Arasi
Aksaray,Merkez,Satilik,0,6,Merkezi,bilinmiyor,yok,var,var,yok,yok,yok,var,var,yok,yok,yok,yok,yok,yok,yok,yok,yok,yok,yok,yok,yok,yok,yok,yok,yok,yok,yok,yok,yok,yok,kademe_4,normal,normal,bilinmiyor,50_75_m2,2_oda,yuksek_8_15_kat,1_banyo,yok,yok,yok,dusuk,yok,yok,yok,2_3_Milyon_TL_Arasi
Elazig,Merkez,Satilik,31_ve_uzeri,1,bilinmiyor,bilinmiyor,yok,yok,var,yok,yok,yok,yok,yok,yok,yok,yok,yok,yok,yok,yok,yok,yok,yok,yok,yok,yok,yok,yok,yok,yok,yok,yok,yok,yok,yok,kademe_4,bilinmiyor,bilinmiyor,bilinmiyor,75_100_m2,3_oda,alcak_1_3_kat,bilinmiyor,yok,yok,yok,dusuk,yok,yok,yok,10_Milyon_TL_Ustu
Amasya,Merzifon,Satilik,6_10_arasi,Yuksek_Giris,Merkezi,bilinmiyor,yok,var,yok,var,var,var,yok,yok,var,yok,yok,yok,yok,yok,yok,yok,yok,yok,yok,yok,yok,yok,yok,yok,yok,yok,yok,yok,yok,yok,kademe_4,bilinmiyor,bilinmiyor,bilinmiyor,75_100_m2,3_oda,orta_4_7_kat,1_banyo,yok,yok,yok,dusuk,yok,yok,yok,2_3_Milyon_TL_Arasi
Afyonkarahisar,Merkez,Satilik,6_10_arasi,4,Kombi,bilinmiyor,yok,var,yok,var,var,yok,yok,yok,yok,yok,yok,yok,yok,yok,yok,yok,yok,yok,yok,yok,yok,yok,yok,yok,yok,yok,yok,yok,yok,yok,kademe_4,bilinmiyor,normal,bilinmiyor,50_75_m2,2_oda,orta_4_7_kat,1_banyo,yok,yok,yok,dusuk,yok,yok,yok,1_5_Milyon_TL_Alti
Amasya,Merzifon,Satilik,21_25_arasi,5,Kombi,bilinmiyor,yok,var,yok,var,yok,yok,yok,yok,yok,yok,yok,yok,yok,yok,yok,yok,yok,yok,yok,yok,yok,yok,yok,yok,yok,yok,yok,yok,yok,yok,kademe_4,bilinmiyor,bilinmiyor,bilinmiyor,125_150_m2,3_oda,orta_4_7_kat,1_banyo,yok,yok,yok,dusuk,yok,yok,yok,1_5_2_Milyon_TL_Arasi
Aksaray,Merkez,Satilik,0,Ara_Kat,Kombi_Dogalgaz,bilinmiyor,yok,var,var,var,yok,var,var,var,var,yok,var,yok,yok,yok,yok,yok,yok,yok,yok,yok,yok,yok,var,yok,yok,var,yok,yok,yok,yok,kademe_4,bilinmiyor,normal,bilinmiyor,100_125_m2,3_oda,orta_4_7_kat,bilinmiyor,yok,yok,yok,orta,orta,yuksek,yok,4_5_Milyon_TL_Arasi
Kastamonu,Inebolu,Satilik,1_5_arasi,bilinmiyor,Soba,bilinmiyor,yok,yok,yok,yok,yok,yok,yok,yok,yok,yok,yok,yok,yok,yok,yok,yok,yok,yok,yok,yok,yok,yok,yok,yok,yok,yok,yok,yok,yok,yok,kademe_4,normal,kotu,bilinmiyor,125_150_m2,3_oda,alcak_1_3_kat,1_banyo,yok,yok,yok,dusuk,dusuk,yok,yok,5_7_Bucuk_Milyon_TL_Arasi
Afyonkarahisar,Merkez,Satilik,16_20_arasi,1,Kombi,bilinmiyor,yok,var,yok,yok,yok,var,yok,var,yok,yok,yok,yok,yok,yok,yok,yok,yok,yok,yok,yok,yok,yok,yok,yok,yok,var,yok,yok,yok,yok,kademe_4,normal,normal,bilinmiyor,100_125_m2,4_oda,orta_4_7_kat,1_banyo,yok,yok,yok,dusuk,orta,orta,yok,3_4_Milyon_TL_Arasi
Afyonkarahisar,Merkez,Satilik,11_15_arasi,Bahce,Soba,bilinmiyor,yok,var,yok,yok,yok,var,var,var,var,yok,var,yok,yok,var,yok,yok,yok,yok,yok,yok,yok,yok,var,yok,yok,var,yok,yok,yok,yok,kademe_4,kotu,normal,bilinmiyor,300_m2_ve_ustu,3_oda,bilinmiyor,1_banyo,yok,yok,yok,dusuk,orta,orta,yok,2_3_Milyon_TL_Arasi
Aksaray,Merkez,Satilik,0,2,Kombi,bilinmiyor,yok,var,var,yok,yok,var,yok,yok,yok,yok,var,yok,yok,var,yok,yok,yok,yok,yok,yok,yok,yok,var,yok,yok,var,yok,yok,yok,yok,kademe_4,normal,normal,iyi,50_75_m2,2_oda,orta_4_7_kat,1_banyo,yok,dusuk,dusuk,dusuk,yuksek,yuksek,yok,1_5_Milyon_TL_Alti
Amasya,Merkez,Satilik,6_10_arasi,1,Kombi,bilinmiyor,yok,var,yok,var,yok,var,var,var,yok,yok,var,var,yok,yok,yok,yok,yok,yok,yok,yok,yok,yok,yok,yok,yok,var,yok,yok,yok,yok,kademe_4,kotu,normal,normal,150_200_m2,4_oda,orta_4_7_kat,2_banyo,dusuk,yok,dusuk,dusuk,yuksek,yuksek,yok,4_5_Milyon_TL_Arasi
Amasya,Merzifon,Satilik,1_5_arasi,1,Kombi,bilinmiyor,yok,var,yok,yok,yok,yok,yok,yok,yok,yok,yok,yok,yok,yok,yok,yok,yok,yok,yok,yok,yok,yok,yok,yok,yok,var,yok,yok,yok,yok,kademe_4,normal,normal,bilinmiyor,100_125_m2,3_oda,orta_4_7_kat,1_banyo,yok,yok,dusuk,dusuk,orta,dusuk,yok,3_4_Milyon_TL_Arasi
Kastamonu,Inebolu,Satilik,16_20_arasi,bilinmiyor,Soba,bilinmiyor,yok,yok,yok,yok,yok,yok,yok,var,var,yok,yok,yok,yok,yok,yok,yok,yok,yok,yok,yok,yok,yok,yok,yok,yok,yok,yok,yok,yok,yok,kademe_4,bilinmiyor,bilinmiyor,bilinmiyor,300_m2_ve_ustu,5_oda,orta_4_7_kat,2_banyo,yok,yok,yok,dusuk,yok,yok,yok,10_Milyon_TL_Ustu
Aksaray,Merkez,Satilik,21_25_arasi,3,Kombi,bilinmiyor,yok,var,yok,var,yok,yok,yok,yok,yok,yok,yok,yok,yok,yok,yok,yok,yok,yok,yok,yok,yok,yok,yok,yok,yok,yok,yok,yok,yok,yok,kademe_4,kotu,kotu,bilinmiyor,150_200_m2,4_oda,orta_4_7_kat,1_banyo,yok,yok,yok,dusuk,yok,yok,yok,2_3_Milyon_TL_Arasi
Kastamonu,Merkez,Satilik,0,1,Kombi,bilinmiyor,yok,var,var,var,yok,var,var,var,yok,yok,var,yok,yok,var,yok,yok,yok,yok,yok,yok,yok,yok,var,yok,yok,var,yok,yok,yok,yok,kademe_4,bilinmiyor,bilinmiyor,bilinmiyor,0_50_m2,2_oda,orta_4_7_kat,1_banyo,dusuk,yok,dusuk,dusuk,yuksek,yuksek,yok,2_3_Milyon_TL_Arasi
Amasya,Merzifon,Satilik,0,bilinmiyor,Kombi_Dogalgaz,bilinmiyor,yok,var,yok,var,yok,yok,var,yok,var,yok,var,var,yok,var,yok,yok,yok,yok,yok,yok,yok,yok,yok,yok,yok,var,var,yok,yok,yok,kademe_4,bilinmiyor,bilinmiyor,normal,150_200_m2,5_oda,alcak_1_3_kat,3_banyo_ve_ustu,dusuk,yok,dusuk,dusuk,yok,orta,yok,5_7_Bucuk_Milyon_TL_Arasi
Amasya,Merzifon,Satilik,16_20_arasi,3,Kombi_Dogalgaz,bilinmiyor,yok,var,yok,yok,yok,var,var,yok,yok,yok,yok,yok,yok,yok,yok,yok,yok,yok,yok,yok,yok,yok,yok,yok,yok,yok,yok,yok,yok,yok,kademe_4,kotu,bilinmiyor,bilinmiyor,125_150_m2,4_oda,alcak_1_3_kat,1_banyo,yok,yok,yok,dusuk,yok,yok,yok,2_3_Milyon_TL_Arasi
Afyonkarahisar,Merkez,Satilik,0,Zemin,Yerden_Isitma,bilinmiyor,yok,var,var,var,yok,yok,yok,yok,var,yok,var,yok,yok,yok,yok,yok,yok,var,yok,yok,yok,yok,yok,yok,yok,yok,yok,yok,yok,yok,kademe_4,iyi,iyi,iyi,75_100_m2,3_oda,orta_4_7_kat,1_banyo,dusuk,yok,yok,dusuk,dusuk,orta,yok,3_4_Milyon_TL_Arasi
Amasya,Merzifon,Satilik,1_5_arasi,3,Kombi_Dogalgaz,bilinmiyor,yok,var,var,var,yok,var,yok,yok,var,yok,var,yok,yok,yok,yok,var,yok,yok,yok,yok,yok,yok,var,yok,yok,var,yok,yok,yok,yok,kademe_4,iyi,iyi,iyi,50_75_m2,2_oda,orta_4_7_kat,1_banyo,yok,yok,yok,dusuk,dusuk,yuksek,yok,1_5_2_Milyon_TL_Arasi
Aksaray,Merkez,Satilik,0,3,Yerden_Isitma,bilinmiyor,yok,var,var,var,yok,var,yok,var,var,yok,yok,yok,yok,yok,yok,yok,yok,yok,yok,yok,yok,yok,yok,yok,yok,yok,yok,yok,yok,yok,kademe_4,normal,bilinmiyor,normal,125_150_m2,3_oda,orta_4_7_kat,1_banyo,yok,yok,yok,yok,yok,yok,yok,4_5_Milyon_TL_Arasi
Aksaray,Merkez,Satilik,0,2,Yerden_Isitma,bilinmiyor,yok,var,yok,var,yok,yok,yok,var,yok,yok,yok,yok,yok,yok,yok,yok,yok,yok,yok,yok,yok,yok,yok,yok,yok,var,yok,yok,yok,yok,kademe_4,normal,normal,kotu,0_50_m2,2_oda,orta_4_7_kat,1_banyo,yok,yok,yok,orta,dusuk,yok,yok,1_5_2_Milyon_TL_Arasi
Amasya,Merzifon,Satilik,0,2,Kombi,bilinmiyor,yok,var,yok,yok,yok,yok,yok,yok,var,yok,yok,yok,yok,yok,yok,yok,yok,yok,yok,yok,yok,yok,yok,yok,yok,yok,yok,yok,yok,yok,kademe_4,iyi,bilinmiyor,kotu,50_75_m2,2_oda,orta_4_7_kat,1_banyo,yok,yok,yok,dusuk,yok,yok,yok,1_5_2_Milyon_TL_Arasi
Amasya,Merzifon,Satilik,0,2,Kombi_Dogalgaz,bilinmiyor,yok,yok,yok,yok,yok,yok,var,var,yok,yok,yok,yok,yok,yok,yok,yok,yok,yok,yok,yok,yok,yok,yok,yok,yok,yok,yok,yok,yok,yok,kademe_4,normal,normal,bilinmiyor,50_75_m2,2_oda,orta_4_7_kat,1_banyo,yok,yok,yok,dusuk,yok,yok,yok,1_5_2_Milyon_TL_Arasi
Elazig,Karakocan,Satilik,6_10_arasi,5,Kombi,bilinmiyor,yok,var,var,var,yok,yok,var,var,yok,yok,yok,yok,yok,var,yok,yok,yok,yok,yok,yok,yok,yok,yok,yok,yok,var,yok,yok,yok,yok,kademe_4,kotu,iyi,bilinmiyor,150_200_m2,4_oda,orta_4_7_kat,1_banyo,yok,yok,yok,dusuk,orta,yuksek,yok,3_4_Milyon_TL_Arasi
Amasya,Merzifon,Satilik,6_10_arasi,Cati,Kombi,bilinmiyor,yok,var,var,yok,yok,var,yok,var,yok,yok,var,yok,yok,yok,yok,yok,yok,yok,yok,yok,yok,yok,yok,yok,yok,var,yok,yok,var,yok,kademe_4,iyi,bilinmiyor,normal,200_300_m2,5_oda,orta_4_7_kat,2_banyo,yok,yok,dusuk,dusuk,orta,yuksek,yok,5_7_Bucuk_Milyon_TL_Arasi
Amasya,Merzifon,Satilik,1_5_arasi,1,Kombi,bilinmiyor,yok,var,yok,var,yok,yok,yok,yok,yok,yok,yok,yok,yok,yok,yok,yok,yok,yok,yok,yok,yok,yok,yok,yok,yok,var,yok,yok,yok,yok,kademe_4,normal,iyi,kotu,50_75_m2,2_oda,orta_4_7_kat,1_banyo,yok,yok,dusuk,dusuk,orta,orta,yok,1_5_2_Milyon_TL_Arasi
Afyonkarahisar,Merkez,Satilik,16_20_arasi,Ara_Kat,Merkezi,bilinmiyor,yok,var,var,var,yok,yok,var,var,yok,yok,yok,var,yok,var,yok,yok,yok,yok,yok,yok,yok,yok,yok,yok,yok,var,yok,yok,yok,yok,kademe_4,normal,normal,kotu,125_150_m2,4_oda,orta_4_7_kat,2_banyo,yok,yok,yok,orta,orta,orta,yok,4_5_Milyon_TL_Arasi
Artvin,Merkez,Satilik,1_5_arasi,2,Kombi,bilinmiyor,yok,yok,var,var,yok,yok,yok,yok,yok,yok,yok,yok,yok,yok,yok,yok,yok,yok,yok,yok,yok,yok,yok,yok,yok,yok,yok,yok,yok,yok,kademe_4,normal,normal,iyi,100_125_m2,3_oda,yuksek_8_15_kat,1_banyo,yok,yok,yok,dusuk,yok,yok,yok,3_4_Milyon_TL_Arasi
Aksaray,Merkez,Satilik,1_5_arasi,6,Kombi,bilinmiyor,yok,var,var,yok,var,yok,yok,yok,yok,yok,yok,yok,yok,yok,yok,yok,yok,yok,yok,yok,yok,yok,yok,yok,yok,yok,yok,yok,yok,yok,kademe_4,iyi,bilinmiyor,normal,0_50_m2,2_oda,orta_4_7_kat,1_banyo,yok,yok,yok,yok,yok,yok,yok,1_5_2_Milyon_TL_Arasi
Amasya,Merzifon,Satilik,26_30_arasi,3,Kombi_Dogalgaz,bilinmiyor,yok,yok,yok,yok,yok,yok,yok,var,var,yok,yok,yok,yok,yok,yok,yok,yok,yok,yok,yok,yok,yok,yok,yok,yok,yok,yok,yok,yok,yok,kademe_4,normal,kotu,kotu,100_125_m2,3_oda,orta_4_7_kat,1_banyo,yok,yok,yok,dusuk,yok,yok,yok,2_3_Milyon_TL_Arasi
Amasya,Merkez,Satilik,11_15_arasi,Bahce,Kombi,bilinmiyor,yok,var,yok,yok,yok,yok,yok,yok,yok,yok,var,yok,yok,var,yok,yok,yok,yok,yok,yok,yok,yok,yok,yok,yok,var,yok,yok,yok,var,kademe_4,normal,iyi,bilinmiyor,300_m2_ve_ustu,6_oda,bilinmiyor,2_banyo,yok,yok,dusuk,dusuk,orta,yuksek,yok,7_Bucuk_10_Milyon_TL_Arasi
Afyonkarahisar,Merkez,Satilik,6_10_arasi,3,Kombi,bilinmiyor,yok,yok,var,yok,var,yok,yok,yok,yok,yok,yok,yok,yok,yok,yok,yok,yok,yok,yok,yok,yok,yok,yok,yok,yok,var,yok,yok,yok,yok,kademe_4,normal,bilinmiyor,bilinmiyor,0_50_m2,2_oda,orta_4_7_kat,1_banyo,yok,yok,dusuk,dusuk,dusuk,yuksek,yok,1_5_Milyon_TL_Alti
Afyonkarahisar,Dazkiri,Satilik,21_25_arasi,bilinmiyor,Kat_Kaloriferi,bilinmiyor,yok,yok,yok,yok,yok,var,var,var,yok,yok,yok,yok,yok,yok,yok,yok,yok,yok,yok,yok,yok,yok,yok,yok,yok,yok,yok,yok,yok,yok,kademe_4,bilinmiyor,bilinmiyor,bilinmiyor,300_m2_ve_ustu,7_oda_ve_ustu,orta_4_7_kat,3_banyo_ve_ustu,yok,yok,yok,dusuk,yok,yok,yok,10_Milyon_TL_Ustu
Aksaray,Merkez,Satilik,1_5_arasi,3,Kombi,bilinmiyor,yok,var,var,var,var,var,var,var,yok,yok,yok,yok,yok,yok,yok,yok,yok,yok,yok,yok,yok,yok,yok,yok,yok,yok,yok,yok,yok,yok,kademe_4,iyi,iyi,iyi,50_75_m2,2_oda,orta_4_7_kat,1_banyo,yok,yok,yok,dusuk,yok,yok,yok,1_5_Milyon_TL_Alti
Aksaray,Merkez,Satilik,21_25_arasi,Ara_Kat,Kombi_Dogalgaz,bilinmiyor,yok,var,yok,yok,yok,yok,yok,yok,var,yok,yok,yok,yok,yok,yok,yok,yok,yok,yok,yok,yok,yok,yok,yok,yok,yok,yok,yok,yok,yok,kademe_4,kotu,normal,kotu,125_150_m2,4_oda,orta_4_7_kat,1_banyo,yok,yok,yok,yok,yok,yok,yok,3_4_Milyon_TL_Arasi
Afyonkarahisar,Merkez,Satilik,26_30_arasi,1,Kombi,bilinmiyor,yok,var,yok,yok,yok,var,var,var,yok,yok,var,yok,yok,var,yok,yok,yok,yok,yok,yok,yok,yok,yok,yok,yok,var,yok,yok,yok,yok,kademe_4,normal,bilinmiyor,bilinmiyor,125_150_m2,4_oda,orta_4_7_kat,1_banyo,yok,yok,dusuk,orta,orta,orta,yok,3_4_Milyon_TL_Arasi
Amasya,Merzifon,Satilik,0,2,Kombi,bilinmiyor,yok,var,var,var,yok,var,yok,var,yok,yok,yok,yok,yok,yok,yok,yok,yok,yok,yok,yok,yok,yok,yok,yok,yok,yok,yok,yok,yok,yok,kademe_4,iyi,bilinmiyor,bilinmiyor,100_125_m2,3_oda,orta_4_7_kat,2_banyo,yok,yok,yok,dusuk,yok,yok,yok,3_4_Milyon_TL_Arasi
Aksaray,Merkez,Satilik,0,2,Kombi,bilinmiyor,yok,var,yok,var,var,yok,yok,yok,yok,yok,yok,yok,yok,yok,yok,yok,yok,yok,yok,yok,yok,yok,yok,yok,yok,yok,yok,yok,yok,yok,kademe_4,iyi,normal,bilinmiyor,0_50_m2,2_oda,orta_4_7_kat,1_banyo,yok,yok,yok,yok,yok,yok,yok,1_5_2_Milyon_TL_Arasi
Kirsehir,Merkez,Satilik,0,4,Kombi,bilinmiyor,yok,var,var,var,var,var,var,var,var,yok,yok,yok,yok,yok,yok,yok,yok,yok,yok,yok,yok,yok,yok,yok,yok,yok,yok,yok,yok,yok,kademe_4,iyi,normal,bilinmiyor,200_300_m2,5_oda,orta_4_7_kat,2_banyo,yok,yok,yok,dusuk,yok,yok,yok,4_5_Milyon_TL_Arasi
Kastamonu,Inebolu,Satilik,21_25_arasi,bilinmiyor,Soba,bilinmiyor,yok,yok,yok,yok,var,yok,yok,yok,yok,yok,yok,yok,yok,yok,yok,yok,yok,yok,yok,yok,yok,yok,yok,yok,yok,yok,yok,yok,yok,yok,kademe_4,bilinmiyor,bilinmiyor,bilinmiyor,150_200_m2,6_oda,alcak_1_3_kat,2_banyo,yok,yok,yok,dusuk,yok,yok,yok,5_7_Bucuk_Milyon_TL_Arasi
Amasya,Merkez,Satilik,0,1,Yerden_Isitma,bilinmiyor,yok,var,yok,yok,yok,yok,yok,var,yok,yok,yok,yok,yok,var,yok,yok,yok,yok,yok,yok,yok,yok,yok,yok,yok,yok,yok,yok,yok,yok,kademe_4,iyi,bilinmiyor,kotu,75_100_m2,2_oda,orta_4_7_kat,1_banyo,yok,yok,yok,dusuk,orta,yuksek,yok,2_3_Milyon_TL_Arasi
Aksaray,Merkez,Satilik,0,2,Kombi_Dogalgaz,bilinmiyor,yok,var,var,var,yok,var,yok,var,yok,var,var,var,yok,var,yok,yok,yok,var,yok,yok,yok,yok,yok,yok,yok,var,yok,yok,yok,yok,kademe_4,normal,normal,bilinmiyor,100_125_m2,3_oda,orta_4_7_kat,2_banyo,orta,dusuk,dusuk,dusuk,yok,yuksek,yok,4_5_Milyon_TL_Arasi
Kastamonu,Merkez,Satilik,26_30_arasi,Bahce,Kombi,bilinmiyor,yok,yok,yok,var,yok,var,var,var,yok,yok,var,yok,yok,yok,yok,yok,yok,yok,yok,yok,yok,yok,var,yok,yok,yok,yok,var,yok,yok,kademe_4,normal,iyi,bilinmiyor,200_300_m2,3_oda,bilinmiyor,1_banyo,yok,yok,yok,dusuk,dusuk,dusuk,yok,3_4_Milyon_TL_Arasi
Kastamonu,Taskopru,Satilik,26_30_arasi,Ara_Kat,Kat_Kaloriferi,bilinmiyor,yok,var,yok,yok,yok,var,var,yok,yok,yok,var,yok,yok,yok,yok,yok,yok,yok,yok,yok,yok,yok,yok,yok,yok,yok,yok,yok,yok,yok,kademe_4,normal,normal,bilinmiyor,125_150_m2,6_oda,orta_4_7_kat,1_banyo,yok,yok,yok,dusuk,dusuk,dusuk,yok,2_3_Milyon_TL_Arasi
Kastamonu,Inebolu,Satilik,1_5_arasi,2,Kombi_Dogalgaz,bilinmiyor,yok,yok,var,yok,yok,yok,yok,yok,yok,yok,yok,yok,yok,yok,yok,yok,yok,yok,yok,yok,yok,yok,yok,yok,yok,yok,yok,yok,yok,yok,kademe_4,bilinmiyor,bilinmiyor,bilinmiyor,0_50_m2,2_oda,orta_4_7_kat,1_banyo,yok,yok,yok,dusuk,yok,yok,yok,2_3_Milyon_TL_Arasi
Sivas,Merkez,Satilik,0,2,Merkezi,bilinmiyor,yok,var,var,var,yok,var,yok,yok,var,yok,var,yok,yok,var,yok,yok,yok,yok,yok,yok,yok,yok,yok,yok,yok,var,yok,yok,yok,yok,kademe_4,bilinmiyor,bilinmiyor,iyi,75_100_m2,2_oda,yuksek_8_15_kat,1_banyo,dusuk,yok,dusuk,dusuk,orta,yuksek,yok,4_5_Milyon_TL_Arasi
Aksaray,Merkez,Satilik,0,2,Kombi_Dogalgaz,bilinmiyor,yok,var,yok,var,var,var,var,var,var,yok,yok,yok,yok,yok,yok,yok,yok,yok,yok,yok,yok,yok,yok,yok,yok,yok,yok,yok,yok,yok,kademe_4,bilinmiyor,kotu,kotu,50_75_m2,2_oda,orta_4_7_kat,2_banyo,yok,yok,yok,yok,yok,yok,yok,1_5_Milyon_TL_Alti
Amasya,Merkez,Satilik,31_ve_uzeri,bilinmiyor,Soba,bilinmiyor,yok,var,yok,yok,yok,var,var,var,var,yok,yok,yok,yok,yok,yok,yok,yok,yok,yok,yok,yok,yok,var,yok,yok,yok,yok,yok,yok,yok,kademe_4,kotu,normal,kotu,300_m2_ve_ustu,4_oda,alcak_1_3_kat,1_banyo,yok,yok,yok,dusuk,yok,dusuk,yok,3_4_Milyon_TL_Arasi
Aksaray,Merkez,Satilik,1_5_arasi,3,Kombi,bilinmiyor,yok,var,var,var,var,yok,var,var,yok,yok,var,yok,yok,var,yok,yok,yok,yok,yok,yok,yok,yok,yok,yok,yok,var,yok,yok,yok,yok,kademe_4,kotu,bilinmiyor,iyi,0_50_m2,2_oda,orta_4_7_kat,1_banyo,dusuk,dusuk,yok,dusuk,yuksek,yuksek,yok,1_5_2_Milyon_TL_Arasi
Aksaray,Merkez,Satilik,0,1,Yerden_Isitma,bilinmiyor,yok,var,var,var,yok,yok,yok,var,yok,yok,var,yok,yok,var,yok,yok,yok,yok,yok,yok,yok,yok,yok,yok,yok,var,yok,yok,yok,yok,kademe_4,normal,iyi,bilinmiyor,100_125_m2,2_oda,orta_4_7_kat,1_banyo,yok,yok,yok,yok,orta,yuksek,yok,3_4_Milyon_TL_Arasi
Amasya,Merzifon,Satilik,0,2,Yerden_Isitma,bilinmiyor,yok,var,var,var,yok,yok,yok,yok,yok,yok,yok,yok,yok,yok,yok,yok,yok,yok,yok,yok,yok,yok,yok,yok,yok,yok,yok,yok,yok,yok,kademe_4,iyi,bilinmiyor,bilinmiyor,100_125_m2,3_oda,orta_4_7_kat,1_banyo,yok,yok,yok,dusuk,yok,dusuk,yok,3_4_Milyon_TL_Arasi
Amasya,Merkez,Satilik,0,4,Yerden_Isitma,bilinmiyor,yok,var,yok,yok,yok,yok,yok,var,var,yok,var,yok,yok,yok,yok,yok,yok,yok,yok,yok,yok,yok,yok,yok,yok,var,yok,yok,yok,yok,kademe_4,bilinmiyor,bilinmiyor,bilinmiyor,100_125_m2,3_oda,orta_4_7_kat,1_banyo,dusuk,dusuk,dusuk,yok,dusuk,yuksek,yok,5_7_Bucuk_Milyon_TL_Arasi
Kastamonu,Merkez,Satilik,6_10_arasi,Bahce,Kombi,bilinmiyor,yok,yok,yok,var,yok,var,var,var,var,yok,var,yok,yok,var,var,yok,yok,yok,yok,yok,yok,yok,var,yok,yok,var,yok,yok,yok,yok,kademe_4,normal,normal,bilinmiyor,300_m2_ve_ustu,7_oda_ve_ustu,orta_4_7_kat,3_banyo_ve_ustu,dusuk,dusuk,dusuk,dusuk,orta,yuksek,yok,10_Milyon_TL_Ustu
Aksaray,Merkez,Satilik,0,3,Yerden_Isitma,bilinmiyor,yok,var,var,var,var,var,var,var,yok,yok,yok,yok,yok,yok,yok,yok,yok,yok,yok,yok,yok,yok,yok,yok,yok,yok,yok,yok,yok,yok,kademe_4,normal,normal,iyi,0_50_m2,2_oda,orta_4_7_kat,1_banyo,yok,yok,yok,dusuk,yok,dusuk,yok,1_5_2_Milyon_TL_Arasi
Kastamonu,Merkez,Satilik,1_5_arasi,1,Merkezi,bilinmiyor,yok,var,var,var,yok,var,var,yok,var,yok,var,yok,yok,var,yok,yok,yok,yok,yok,yok,yok,yok,var,yok,yok,var,yok,yok,yok,yok,kademe_4,bilinmiyor,bilinmiyor,kotu,100_125_m2,3_oda,cok_yuksek_16_ustu_kat,1_banyo,dusuk,dusuk,dusuk,orta,yuksek,yuksek,yok,2_3_Milyon_TL_Arasi
Amasya,Merzifon,Satilik,0,4,Kombi_Dogalgaz,bilinmiyor,yok,yok,yok,yok,yok,yok,yok,var,yok,yok,yok,yok,yok,yok,yok,yok,yok,yok,yok,yok,yok,yok,yok,yok,yok,yok,yok,yok,yok,yok,kademe_4,iyi,bilinmiyor,bilinmiyor,75_100_m2,2_oda,orta_4_7_kat,1_banyo,yok,yok,yok,dusuk,yok,yok,yok,2_3_Milyon_TL_Arasi
Elazig,Merkez,Satilik,0,3,Kombi,bilinmiyor,yok,var,var,var,yok,yok,yok,yok,yok,yok,yok,yok,yok,yok,yok,yok,yok,yok,yok,yok,yok,yok,yok,yok,yok,yok,yok,yok,yok,yok,kademe_4,iyi,iyi,iyi,150_200_m2,4_oda,orta_4_7_kat,2_banyo,yok,yok,yok,dusuk,yok,yok,yok,5_7_Bucuk_Milyon_TL_Arasi
Kirsehir,Merkez,Satilik,26_30_arasi,2,isitma_yok,bilinmiyor,yok,var,yok,var,yok,yok,yok,yok,yok,yok,yok,yok,yok,yok,yok,yok,yok,yok,yok,yok,yok,yok,yok,yok,yok,yok,yok,yok,yok,yok,kademe_4,bilinmiyor,bilinmiyor,bilinmiyor,100_125_m2,4_oda,alcak_1_3_kat,1_banyo,yok,yok,yok,dusuk,yok,yok,yok,1_5_Milyon_TL_Alti
Amasya,Merzifon,Satilik,0,1,Yerden_Isitma,bilinmiyor,yok,var,yok,var,yok,yok,var,var,var,yok,yok,yok,yok,yok,yok,yok,yok,yok,yok,yok,yok,yok,yok,yok,yok,yok,yok,yok,yok,yok,kademe_4,iyi,bilinmiyor,bilinmiyor,50_75_m2,2_oda,orta_4_7_kat,1_banyo,yok,yok,yok,dusuk,yok,yok,yok,1_5_2_Milyon_TL_Arasi
Afyonkarahisar,Merkez,Satilik,0,2,Yerden_Isitma,bilinmiyor,yok,var,var,var,yok,yok,yok,var,yok,yok,var,yok,yok,yok,yok,yok,yok,var,yok,yok,yok,yok,yok,yok,yok,yok,yok,yok,yok,yok,kademe_4,iyi,iyi,iyi,75_100_m2,3_oda,orta_4_7_kat,1_banyo,dusuk,yok,yok,dusuk,dusuk,orta,yok,3_4_Milyon_TL_Arasi
Elazig,Karakocan,Satilik,0,5,Kombi,bilinmiyor,yok,var,var,var,yok,yok,var,yok,var,yok,var,yok,yok,var,yok,yok,yok,yok,yok,yok,yok,yok,yok,yok,yok,var,yok,yok,yok,yok,kademe_4,iyi,normal,bilinmiyor,125_150_m2,3_oda,orta_4_7_kat,1_banyo,yok,yok,dusuk,dusuk,orta,orta,yok,4_5_Milyon_TL_Arasi
Amasya,Merzifon,Satilik,16_20_arasi,2,Kombi_Dogalgaz,bilinmiyor,yok,var,yok,var,yok,var,yok,var,yok,yok,yok,yok,yok,yok,yok,yok,yok,yok,yok,yok,yok,yok,yok,yok,yok,var,yok,yok,yok,yok,kademe_4,kotu,bilinmiyor,kotu,125_150_m2,4_oda,orta_4_7_kat,1_banyo,dusuk,yok,yok,dusuk,yok,orta,yok,2_3_Milyon_TL_Arasi
Amasya,Merkez,Satilik,21_25_arasi,Yuksek_Giris,Kombi,bilinmiyor,yok,var,yok,var,yok,yok,yok,var,yok,yok,var,yok,yok,var,yok,yok,yok,yok,yok,yok,yok,yok,yok,yok,yok,var,yok,yok,yok,yok,kademe_4,kotu,kotu,bilinmiyor,100_125_m2,3_oda,orta_4_7_kat,1_banyo,yok,yok,yok,dusuk,orta,dusuk,yok,2_3_Milyon_TL_Arasi
Afyonkarahisar,Merkez,Satilik,0,4,Kombi,bilinmiyor,yok,yok,var,var,yok,yok,yok,yok,yok,yok,yok,yok,yok,yok,yok,yok,yok,yok,yok,yok,yok,yok,yok,yok,yok,yok,yok,yok,yok,yok,kademe_4,normal,bilinmiyor,bilinmiyor,150_200_m2,5_oda,yuksek_8_15_kat,2_banyo,yok,yok,yok,dusuk,yok,yok,yok,7_Bucuk_10_Milyon_TL_Arasi
Amasya,Merkez,Satilik,0,Ara_Kat,Kombi_Dogalgaz,bilinmiyor,yok,yok,yok,yok,yok,var,var,var,var,yok,yok,yok,yok,yok,yok,yok,yok,yok,yok,yok,yok,yok,yok,yok,yok,yok,yok,yok,yok,yok,kademe_4,normal,iyi,kotu,50_75_m2,2_oda,yuksek_8_15_kat,1_banyo,yok,yok,yok,dusuk,yok,yok,yok,2_3_Milyon_TL_Arasi
Amasya,Merzifon,Satilik,16_20_arasi,Bahce,Soba,bilinmiyor,yok,var,yok,yok,yok,var,var,var,yok,yok,yok,yok,yok,yok,yok,yok,yok,yok,yok,yok,yok,yok,yok,yok,yok,yok,yok,yok,yok,yok,kademe_4,kotu,bilinmiyor,kotu,200_300_m2,4_oda,alcak_1_3_kat,2_banyo,yok,yok,yok,dusuk,yok,yok,yok,1_5_2_Milyon_TL_Arasi
Amasya,Merzifon,Satilik,21_25_arasi,1,Kombi_Dogalgaz,bilinmiyor,yok,yok,yok,yok,yok,var,var,yok,yok,yok,yok,yok,yok,yok,yok,yok,yok,yok,yok,yok,yok,yok,yok,yok,yok,yok,yok,yok,yok,yok,kademe_4,normal,kotu,normal,125_150_m2,2_oda,orta_4_7_kat,1_banyo,yok,yok,yok,dusuk,yok,yok,yok,2_3_Milyon_TL_Arasi
Aksaray,Merkez,Satilik,1_5_arasi,Cati,Kombi,bilinmiyor,yok,var,yok,yok,yok,yok,var,var,var,yok,var,var,yok,var,yok,yok,yok,yok,yok,yok,yok,yok,var,yok,yok,var,var,yok,yok,yok,kademe_4,normal,normal,kotu,150_200_m2,5_oda,orta_4_7_kat,2_banyo,yok,orta,dusuk,dusuk,yuksek,yuksek,yok,4_5_Milyon_TL_Arasi
Amasya,Merzifon,Satilik,1_5_arasi,3,Merkezi,bilinmiyor,yok,yok,yok,yok,yok,yok,var,var,yok,yok,yok,yok,yok,yok,yok,yok,yok,yok,yok,yok,yok,yok,yok,yok,yok,yok,yok,yok,yok,yok,kademe_4,normal,normal,bilinmiyor,125_150_m2,4_oda,orta_4_7_kat,1_banyo,yok,yok,yok,dusuk,yok,yok,yok,3_4_Milyon_TL_Arasi
Aksaray,Merkez,Satilik,0,Yuksek_Giris,Yerden_Isitma,bilinmiyor,yok,var,yok,var,yok,yok,yok,var,yok,yok,yok,yok,yok,yok,yok,yok,yok,yok,yok,yok,yok,yok,yok,yok,yok,yok,yok,yok,yok,yok,kademe_4,bilinmiyor,iyi,bilinmiyor,75_100_m2,3_oda,orta_4_7_kat,1_banyo,dusuk,yok,yok,orta,orta,yuksek,yok,3_4_Milyon_TL_Arasi
Elazig,Merkez,Satilik,1_5_arasi,4,Kombi,bilinmiyor,yok,var,var,yok,yok,var,yok,var,yok,yok,yok,yok,yok,yok,yok,yok,yok,yok,yok,yok,yok,yok,yok,yok,yok,yok,yok,yok,yok,yok,kademe_4,bilinmiyor,normal,bilinmiyor,150_200_m2,4_oda,yuksek_8_15_kat,2_banyo,yok,yok,yok,dusuk,yok,yok,yok,4_5_Milyon_TL_Arasi
Artvin,Arhavi,Satilik,11_15_arasi,5,Soba,bilinmiyor,yok,yok,yok,yok,yok,yok,yok,yok,yok,yok,yok,yok,yok,yok,yok,yok,yok,yok,yok,yok,yok,yok,yok,yok,yok,yok,yok,yok,yok,yok,kademe_4,kotu,kotu,bilinmiyor,125_150_m2,4_oda,orta_4_7_kat,1_banyo,yok,yok,yok,dusuk,yok,yok,yok,2_3_Milyon_TL_Arasi
Amasya,Merkez,Satilik,6_10_arasi,3,Kombi,bilinmiyor,yok,var,yok,var,yok,var,var,var,var,yok,var,yok,yok,var,yok,yok,yok,yok,yok,yok,yok,yok,yok,yok,yok,var,yok,yok,yok,yok,kademe_4,normal,normal,kotu,150_200_m2,4_oda,orta_4_7_kat,2_banyo,yok,yok,yok,dusuk,orta,yuksek,yok,5_7_Bucuk_Milyon_TL_Arasi
Kastamonu,Merkez,Satilik,6_10_arasi,6,Merkezi,bilinmiyor,yok,yok,var,var,yok,yok,yok,yok,yok,yok,yok,yok,yok,yok,yok,yok,yok,yok,yok,yok,yok,yok,yok,yok,yok,yok,yok,yok,yok,yok,kademe_4,normal,normal,bilinmiyor,125_150_m2,4_oda,yuksek_8_15_kat,2_banyo,yok,yok,yok,dusuk,yok,yok,yok,5_7_Bucuk_Milyon_TL_Arasi
Amasya,Merkez,Satilik,31_ve_uzeri,Bahce,Kombi,bilinmiyor,yok,var,yok,yok,yok,yok,yok,yok,yok,yok,var,yok,yok,var,yok,yok,yok,yok,yok,yok,yok,yok,yok,yok,yok,var,yok,yok,yok,yok,kademe_4,bilinmiyor,bilinmiyor,bilinmiyor,150_200_m2,3_oda,bilinmiyor,1_banyo,yok,yok,yok,dusuk,orta,dusuk,yok,2_3_Milyon_TL_Arasi
Kastamonu,Merkez,Satilik,31_ve_uzeri,Yuksek_Giris,Soba,bilinmiyor,yok,var,yok,var,yok,yok,yok,var,yok,yok,yok,yok,yok,yok,yok,yok,yok,yok,yok,yok,yok,yok,var,yok,yok,yok,yok,yok,yok,yok,kademe_4,bilinmiyor,bilinmiyor,bilinmiyor,75_100_m2,3_oda,alcak_1_3_kat,1_banyo,yok,yok,yok,dusuk,orta,dusuk,yok,1_5_Milyon_TL_Alti
Aksaray,Merkez,Satilik,1_5_arasi,3,Kombi,bilinmiyor,yok,var,var,yok,yok,yok,var,var,yok,yok,yok,yok,yok,yok,yok,yok,yok,yok,yok,yok,yok,yok,yok,yok,yok,var,yok,yok,yok,yok,kademe_4,normal,normal,bilinmiyor,100_125_m2,3_oda,orta_4_7_kat,1_banyo,dusuk,yok,yok,dusuk,orta,dusuk,yok,3_4_Milyon_TL_Arasi
Elazig,Merkez,Satilik,6_10_arasi,1,bilinmiyor,bilinmiyor,yok,var,yok,var,yok,yok,yok,yok,yok,yok,yok,yok,yok,yok,yok,yok,yok,yok,yok,yok,yok,yok,yok,yok,yok,yok,yok,yok,yok,yok,kademe_4,bilinmiyor,bilinmiyor,bilinmiyor,150_200_m2,5_oda,alcak_1_3_kat,2_banyo,yok,yok,yok,dusuk,yok,yok,yok,4_5_Milyon_TL_Arasi
Amasya,Merzifon,Satilik,21_25_arasi,4,Kombi,bilinmiyor,yok,var,yok,var,yok,var,var,var,var,yok,var,var,yok,yok,yok,yok,yok,yok,yok,yok,yok,yok,var,yok,yok,var,yok,yok,yok,yok,kademe_4,iyi,bilinmiyor,bilinmiyor,150_200_m2,4_oda,orta_4_7_kat,2_banyo,yok,dusuk,yok,dusuk,orta,yuksek,yok,2_3_Milyon_TL_Arasi
Afyonkarahisar,Merkez,Satilik,16_20_arasi,Ara_Kat,Kombi_Dogalgaz,bilinmiyor,yok,yok,yok,yok,yok,yok,var,var,yok,yok,yok,yok,yok,yok,yok,yok,yok,yok,yok,yok,yok,yok,yok,yok,yok,yok,yok,yok,yok,yok,kademe_4,bilinmiyor,bilinmiyor,bilinmiyor,125_150_m2,4_oda,orta_4_7_kat,1_banyo,yok,yok,yok,dusuk,yok,yok,yok,3_4_Milyon_TL_Arasi
Kastamonu,Merkez,Satilik,6_10_arasi,1,Merkezi,bilinmiyor,yok,var,yok,var,yok,var,var,yok,var,yok,var,yok,yok,var,yok,yok,yok,yok,yok,yok,yok,yok,var,yok,yok,var,yok,yok,yok,yok,kademe_4,normal,normal,bilinmiyor,100_125_m2,3_oda,yuksek_8_15_kat,1_banyo,dusuk,dusuk,dusuk,orta,yuksek,yuksek,yok,3_4_Milyon_TL_Arasi
Sivas,Merkez,Satilik,26_30_arasi,4,Kombi,bilinmiyor,yok,var,var,var,yok,var,yok,var,var,yok,yok,yok,yok,yok,yok,yok,yok,yok,yok,yok,yok,yok,yok,yok,yok,var,yok,yok,yok,yok,kademe_4,iyi,bilinmiyor,bilinmiyor,100_125_m2,4_oda,yuksek_8_15_kat,1_banyo,yok,yok,yok,yok,orta,yok,yok,2_3_Milyon_TL_Arasi
Aksaray,Ortakoy,Satilik,1_5_arasi,1,bilinmiyor,bilinmiyor,yok,var,yok,yok,yok,yok,yok,yok,yok,yok,yok,yok,yok,yok,yok,yok,yok,yok,yok,yok,yok,yok,yok,yok,yok,yok,yok,yok,yok,yok,kademe_4,bilinmiyor,bilinmiyor,bilinmiyor,125_150_m2,4_oda,alcak_1_3_kat,2_banyo,yok,yok,yok,dusuk,yok,yok,yok,3_4_Milyon_TL_Arasi
Amasya,Merzifon,Satilik,1_5_arasi,1,Kombi,bilinmiyor,yok,var,yok,var,var,yok,yok,var,yok,yok,yok,yok,yok,yok,yok,yok,yok,yok,yok,yok,yok,yok,yok,yok,yok,var,yok,yok,yok,yok,kademe_4,kotu,normal,normal,50_75_m2,2_oda,orta_4_7_kat,1_banyo,yok,yok,yok,dusuk,orta,yok,yok,3_4_Milyon_TL_Arasi
Amasya,Merkez,Satilik,0,Yuksek_Giris,Kombi,bilinmiyor,yok,var,yok,var,yok,yok,var,var,yok,yok,yok,yok,yok,var,yok,yok,yok,yok,yok,yok,yok,yok,var,yok,yok,var,yok,yok,yok,yok,kademe_4,iyi,normal,bilinmiyor,100_125_m2,3_oda,orta_4_7_kat,2_banyo,yok,yok,yok,dusuk,yok,yok,yok,2_3_Milyon_TL_Arasi
Aksaray,Merkez,Satilik,16_20_arasi,4,Kombi,bilinmiyor,yok,var,var,yok,yok,yok,yok,yok,yok,yok,yok,yok,yok,yok,yok,yok,yok,yok,yok,yok,yok,yok,yok,yok,yok,yok,yok,yok,yok,yok,kademe_4,iyi,normal,kotu,125_150_m2,4_oda,yuksek_8_15_kat,1_banyo,yok,yok,yok,yok,yok,yok,yok,2_3_Milyon_TL_Arasi
Amasya,Merzifon,Satilik,1_5_arasi,5,Kombi,bilinmiyor,yok,var,var,var,yok,yok,yok,yok,var,yok,var,yok,yok,yok,yok,yok,yok,yok,yok,yok,yok,yok,yok,yok,yok,var,yok,yok,yok,yok,kademe_4,kotu,bilinmiyor,bilinmiyor,50_75_m2,2_oda,orta_4_7_kat,1_banyo,yok,yok,yok,dusuk,yok,yuksek,yok,1_5_2_Milyon_TL_Arasi
Elazig,Merkez,Satilik,0,3,Kombi_Dogalgaz,bilinmiyor,yok,var,var,var,yok,var,var,var,var,yok,var,var,yok,var,yok,yok,yok,var,yok,yok,yok,yok,yok,yok,yok,var,yok,yok,yok,yok,kademe_4,bilinmiyor,bilinmiyor,bilinmiyor,150_200_m2,4_oda,orta_4_7_kat,2_banyo,yok,yok,yok,dusuk,dusuk,yuksek,yok,4_5_Milyon_TL_Arasi
Kirsehir,Merkez,Satilik,0,3,Kombi,bilinmiyor,yok,var,var,yok,yok,yok,yok,yok,yok,yok,yok,yok,yok,yok,yok,yok,yok,yok,yok,yok,yok,yok,yok,yok,yok,yok,yok,yok,yok,yok,kademe_4,iyi,bilinmiyor,iyi,50_75_m2,2_oda,orta_4_7_kat,1_banyo,yok,yok,yok,dusuk,yok,yok,yok,2_3_Milyon_TL_Arasi
Amasya,Merzifon,Satilik,0,1,Yerden_Isitma,bilinmiyor,yok,var,var,var,yok,var,yok,yok,yok,yok,var,yok,yok,var,yok,yok,yok,yok,yok,yok,yok,yok,var,yok,yok,var,yok,yok,yok,yok,kademe_4,iyi,normal,iyi,100_125_m2,2_oda,orta_4_7_kat,1_banyo,dusuk,yok,yok,dusuk,orta,yuksek,yok,2_3_Milyon_TL_Arasi
Artvin,Hopa,Satilik,1_5_arasi,1,bilinmiyor,bilinmiyor,yok,var,var,var,yok,yok,yok,yok,yok,yok,yok,yok,yok,yok,yok,yok,yok,yok,yok,yok,yok,yok,yok,yok,yok,yok,yok,yok,yok,yok,kademe_4,bilinmiyor,bilinmiyor,normal,125_150_m2,4_oda,alcak_1_3_kat,1_banyo,yok,yok,yok,dusuk,yok,yok,yok,5_7_Bucuk_Milyon_TL_Arasi
bilinmiyor,Merzifon,Satilik,6_10_arasi,4,Kombi_Dogalgaz,bilinmiyor,yok,yok,var,yok,yok,var,yok,var,yok,yok,yok,yok,yok,yok,yok,yok,yok,yok,yok,yok,yok,yok,yok,yok,yok,yok,yok,yok,yok,yok,kademe_4,kotu,bilinmiyor,kotu,125_150_m2,4_oda,orta_4_7_kat,2_banyo,yok,yok,yok,dusuk,yok,yok,yok,2_3_Milyon_TL_Arasi
Amasya,bilinmiyor,Satilik,6_10_arasi,4,Kombi_Dogalgaz,bilinmiyor,yok,yok,var,yok,yok,var,yok,var,yok,yok,yok,yok,yok,yok,yok,yok,yok,yok,yok,yok,yok,yok,yok,yok,yok,yok,yok,yok,yok,yok,kademe_4,kotu,bilinmiyor,kotu,125_150_m2,4_oda,orta_4_7_kat,2_banyo,yok,yok,yok,dusuk,yok,yok,yok,2_3_Milyon_TL_Arasi
Amasya,Merzifon,bilinmiyor,6_10_arasi,4,Kombi_Dogalgaz,bilinmiyor,yok,yok,var,yok,yok,var,yok,var,yok,yok,yok,yok,yok,yok,yok,yok,yok,yok,yok,yok,yok,yok,yok,yok,yok,yok,yok,yok,yok,yok,kademe_4,kotu,bilinmiyor,kotu,125_150_m2,4_oda,orta_4_7_kat,2_banyo,yok,yok,yok,dusuk,yok,yok,yok,2_3_Milyon_TL_Arasi
Amasya,Merzifon,Satilik,bilinmiyor,4,Kombi_Dogalgaz,bilinmiyor,yok,yok,var,yok,yok,var,yok,var,yok,yok,yok,yok,yok,yok,yok,yok,yok,yok,yok,yok,yok,yok,yok,yok,yok,yok,yok,yok,yok,yok,kademe_4,kotu,bilinmiyor,kotu,125_150_m2,4_oda,orta_4_7_kat,2_banyo,yok,yok,yok,dusuk,yok,yok,yok,2_3_Milyon_TL_Arasi
Amasya,Merzifon,Satilik,6_10_arasi,4,Kombi_Dogalgaz,bilinmiyor,yok,yok,var,yok,yok,var,yok,var,yok,yok,yok,yok,yok,yok,yok,yok,yok,yok,yok,yok,yok,yok,yok,yok,yok,yok,yok,yok,yok,yok,bilinmiyor,kotu,bilinmiyor,kotu,125_150_m2,4_oda,orta_4_7_kat,2_banyo,yok,yok,yok,dusuk,yok,yok,yok,2_3_Milyon_TL_Arasi
Amasya,Merzifon,Satilik,6_10_arasi,4,Kombi_Dogalgaz,bilinmiyor,yok,yok,var,yok,yok,var,yok,var,yok,yok,yok,yok,yok,yok,yok,yok,yok,yok,yok,yok,yok,yok,yok,yok,yok,yok,yok,yok,yok,yok,kademe_4,kotu,bilinmiyor,kotu,bilinmiyor,4_oda,orta_4_7_kat,2_banyo,yok,yok,yok,dusuk,yok,yok,yok,2_3_Milyon_TL_Arasi
Amasya,Merzifon,Satilik,6_10_arasi,4,Kombi_Dogalgaz,bilinmiyor,yok,yok,var,yok,yok,var,yok,var,yok,yok,yok,yok,yok,yok,yok,yok,yok,yok,yok,yok,yok,yok,yok,yok,yok,yok,yok,yok,yok,yok,kademe_4,kotu,bilinmiyor,kotu,125_150_m2,bilinmiyor,orta_4_7_kat,2_banyo,yok,yok,yok,dusuk,yok,yok,yok,2_3_Milyon_TL_Arasi
Amasya,Merzifon,Satilik,6_10_arasi,4,Kombi_Dogalgaz,bilinmiyor,yok,yok,var,yok,yok,var,yok,var,yok,yok,yok,yok,yok,yok,yok,yok,yok,yok,yok,yok,yok,yok,yok,yok,yok,yok,yok,yok,yok,yok,kademe_4,kotu,bilinmiyor,kotu,125_150_m2,4_oda,orta_4_7_kat,2_banyo,bilinmiyor,yok,yok,dusuk,yok,yok,yok,2_3_Milyon_TL_Arasi
Amasya,Merzifon,Satilik,6_10_arasi,4,Kombi_Dogalgaz,bilinmiyor,yok,yok,var,yok,yok,var,yok,var,yok,yok,yok,yok,yok,yok,yok,yok,yok,yok,yok,yok,yok,yok,yok,yok,yok,yok,yok,yok,yok,yok,kademe_4,kotu,bilinmiyor,kotu,125_150_m2,4_oda,orta_4_7_kat,2_banyo,yok,bilinmiyor,yok,dusuk,yok,yok,yok,2_3_Milyon_TL_Arasi
Amasya,Merzifon,Satilik,6_10_arasi,4,Kombi_Dogalgaz,bilinmiyor,yok,yok,var,yok,yok,var,yok,var,yok,yok,yok,yok,yok,yok,yok,yok,yok,yok,yok,yok,yok,yok,yok,yok,yok,yok,yok,yok,yok,yok,kademe_4,kotu,bilinmiyor,kotu,125_150_m2,4_oda,orta_4_7_kat,2_banyo,yok,yok,bilinmiyor,dusuk,yok,yok,yok,2_3_Milyon_TL_Arasi
Amasya,Merzifon,Satilik,6_10_arasi,4,Kombi_Dogalgaz,bilinmiyor,yok,yok,var,yok,yok,var,yok,var,yok,yok,yok,yok,yok,yok,yok,yok,yok,yok,yok,yok,yok,yok,yok,yok,yok,yok,yok,yok,yok,yok,kademe_4,kotu,bilinmiyor,kotu,125_150_m2,4_oda,orta_4_7_kat,2_banyo,yok,yok,yok,bilinmiyor,yok,yok,yok,2_3_Milyon_TL_Arasi
Amasya,Merzifon,Satilik,6_10_arasi,4,Kombi_Dogalgaz,bilinmiyor,yok,yok,var,yok,yok,var,yok,var,yok,yok,yok,yok,yok,yok,yok,yok,yok,yok,yok,yok,yok,yok,yok,yok,yok,yok,yok,yok,yok,yok,kademe_4,kotu,bilinmiyor,kotu,125_150_m2,4_oda,orta_4_7_kat,2_banyo,yok,yok,yok,dusuk,bilinmiyor,yok,yok,2_3_Milyon_TL_Arasi
Amasya,Merzifon,Satilik,6_10_arasi,4,Kombi_Dogalgaz,bilinmiyor,yok,yok,var,yok,yok,var,yok,var,yok,yok,yok,yok,yok,yok,yok,yok,yok,yok,yok,yok,yok,yok,yok,yok,yok,yok,yok,yok,yok,yok,kademe_4,kotu,bilinmiyor,kotu,125_150_m2,4_oda,orta_4_7_kat,2_banyo,yok,yok,yok,dusuk,yok,bilinmiyor,yok,2_3_Milyon_TL_Arasi
Amasya,Merzifon,Satilik,6_10_arasi,4,Kombi_Dogalgaz,bilinmiyor,yok,yok,var,yok,yok,var,yok,var,yok,yok,yok,yok,yok,yok,yok,yok,yok,yok,yok,yok,yok,yok,yok,yok,yok,yok,yok,yok,yok,yok,kademe_4,kotu,bilinmiyor,kotu,125_150_m2,4_oda,orta_4_7_kat,2_banyo,yok,yok,yok,dusuk,yok,yok,bilinmiyor,2_3_Milyon_TL_Arasi
